POSCAR                                  
   1.00000000000000     
    10.1003100000000003    0.0000000000000000    0.0000000000000000
    -5.0501550000000002    8.7471250499999993    0.0000000000000000
     0.0000000000000000    0.0000000000000000   21.2537999999999982
   Ni   Fe   O 
    33    31     4
Selective dynamics
Direct
  0.9990430000000003  0.0006419999999991  0.1905229999999989   F   F   F
  0.2484910000000013  0.9986279999999965  0.1920550000000034   F   F   F
  0.4990250000000032  0.0019270000000020  0.1918059999999997   F   F   F
  0.9981390000000019  0.2506739999999965  0.1919419999999974   F   F   F
  0.2492149999999995  0.2488620000000026  0.1911860000000019   F   F   F
  0.3269769420893509  0.1637195360489921  0.2852333061179314   T   T   T
  0.7489350000000030  0.2527809999999988  0.1931749999999965   F   F   F
  0.4183749999999975  0.0839399999999983  0.0941180000000017   F   F   F
  0.4099330929865409  0.0812339228261493  0.3790120076929592   T   T   T
  0.8295778946680807  0.1676175138414298  0.2856008204596995   T   T   T
  0.6679699999999968  0.0847229999999968  0.0956929999999971   F   F   F
  0.6670060674186036  0.0804981134460132  0.3788103988966744   T   T   T
  0.9990859999999984  0.4991079999999997  0.1930400000000034   F   F   F
  0.7481689999999972  0.4987110000000001  0.1920459999999977   F   F   F
  0.5798627524407324  0.4193131077700524  0.2823966443382948   T   T   T
  0.4196099999999987  0.3333709999999996  0.0941400000000030   F   F   F
  0.4084001614290965  0.3246830757521865  0.3785011321251584   T   T   T
  0.8335311955634153  0.4210247523602578  0.2843310044486440   T   T   T
  0.9185590000000019  0.3350160000000031  0.0956869999999981   F   F   F
  0.9141132118598603  0.3278010475068506  0.3798743910049818   T   T   T
  0.9976580000000013  0.7489690000000024  0.1925600000000003   F   F   F
  0.0832450020015937  0.6670739858024222  0.2834372893599104   T   T   T
  0.7534649999999985  0.7517280000000000  0.1916289999999989   F   F   F
  0.4173729999999978  0.5835239999999970  0.0962340000000026   F   F   F
  0.4103612598995008  0.5816471929958069  0.3771487388023054   T   T   T
  0.9155080000000027  0.5846190000000036  0.0954290000000029   F   F   F
  0.9033071977179862  0.5823612754193132  0.3790679893057680   T   T   T
  0.1668289999999999  0.8349079999999987  0.0945669999999978   F   F   F
  0.1644585440211696  0.8353834526870796  0.3719239206728353   T   T   T
  0.4171529999999990  0.8333879999999994  0.0967929999999981   F   F   F
  0.4097105312116986  0.8237561634875428  0.3782573056267216   T   T   T
  0.9198510000000013  0.8326369999999983  0.0953980000000030   F   F   F
  0.9077222686043173  0.8308823509292449  0.3792159663333377   T   T   T
  0.7491819999999976  0.0045379999999966  0.1931129999999968   F   F   F
  0.0782988261982465  0.1638401162820600  0.2844866964406439   T   T   T
  0.4931899999999985  0.2454400000000021  0.1916780000000031   F   F   F
  0.1713960000000014  0.0833930000000009  0.0953590000000020   F   F   F
  0.1535195231392584  0.0830617308463199  0.3748782505498585   T   T   T
  0.5724321829367270  0.1687083158326489  0.2829707149037320   T   T   T
  0.9169309999999982  0.0858149999999966  0.0941010000000020   F   F   F
  0.9176176258414604  0.0794902480178218  0.3746089767440254   T   T   T
  0.2459640000000007  0.4966930000000005  0.1936990000000023   F   F   F
  0.0952870654100244  0.4197724714654699  0.2830817642972274   T   T   T
  0.5029729999999972  0.4996209999999977  0.1909629999999964   F   F   F
  0.3321167478578751  0.4256905326634643  0.2814622082379565   T   T   T
  0.1708140000000000  0.3372420000000034  0.0955050000000028   F   F   F
  0.1633166045723984  0.3295690340762830  0.3684509808592868   T   T   T
  0.6726469999999978  0.3359809999999968  0.0960030000000032   F   F   F
  0.6590642790815676  0.3229231013662878  0.3676538289389452   T   T   T
  0.2449050000000028  0.7526999999999973  0.1934359999999984   F   F   F
  0.4984030000000033  0.7498829999999970  0.1926070000000024   F   F   F
  0.3336126674025646  0.6705493911651240  0.2812933418036881   T   T   T
  0.1647060000000025  0.5862709999999964  0.0973309999999969   F   F   F
  0.1640854921351511  0.5691111253647709  0.3746043963505198   T   T   T
  0.5801589707493719  0.6671798579125813  0.2802316700266135   T   T   T
  0.8342564523555832  0.6787076450840319  0.2854418206692676   T   T   T
  0.6676250000000010  0.5842620000000025  0.0951990000000009   F   F   F
  0.6650596763296375  0.5894420945524332  0.3754294342164836   T   T   T
  0.0752349247780453  0.9188547686418836  0.2842616334531104   T   T   T
  0.3366811920351455  0.9154408482852242  0.2822658216792126   T   T   T
  0.5778417930042415  0.9083665708581942  0.2807231906905247   T   T   T
  0.8320223243632416  0.9216995860932267  0.2829772456852793   T   T   T
  0.6684139999999985  0.8335110000000014  0.0965980000000002   F   F   F
  0.6670582035318373  0.8329879639518475  0.3676828188460950   T   T   T
 -0.0001465011495820  0.0069787149293381  0.4321818223008269   T   T   T
  0.5071686939845184  0.5005899966454959  0.4276349409829919   T   T   T
  0.0088832387102560  0.5106103938473482  0.4271838203609578   T   T   T
  0.4957903375141847  0.9950131133531835  0.4291159958902239   T   T   T
 
  0.00000000E+00  0.00000000E+00  0.00000000E+00
  0.00000000E+00  0.00000000E+00  0.00000000E+00
  0.00000000E+00  0.00000000E+00  0.00000000E+00
  0.00000000E+00  0.00000000E+00  0.00000000E+00
  0.00000000E+00  0.00000000E+00  0.00000000E+00
  0.00000000E+00  0.00000000E+00  0.00000000E+00
  0.00000000E+00  0.00000000E+00  0.00000000E+00
  0.00000000E+00  0.00000000E+00  0.00000000E+00
  0.00000000E+00  0.00000000E+00  0.00000000E+00
  0.00000000E+00  0.00000000E+00  0.00000000E+00
  0.00000000E+00  0.00000000E+00  0.00000000E+00
  0.00000000E+00  0.00000000E+00  0.00000000E+00
  0.00000000E+00  0.00000000E+00  0.00000000E+00
  0.00000000E+00  0.00000000E+00  0.00000000E+00
  0.00000000E+00  0.00000000E+00  0.00000000E+00
  0.00000000E+00  0.00000000E+00  0.00000000E+00
  0.00000000E+00  0.00000000E+00  0.00000000E+00
  0.00000000E+00  0.00000000E+00  0.00000000E+00
  0.00000000E+00  0.00000000E+00  0.00000000E+00
  0.00000000E+00  0.00000000E+00  0.00000000E+00
  0.00000000E+00  0.00000000E+00  0.00000000E+00
  0.00000000E+00  0.00000000E+00  0.00000000E+00
  0.00000000E+00  0.00000000E+00  0.00000000E+00
  0.00000000E+00  0.00000000E+00  0.00000000E+00
  0.00000000E+00  0.00000000E+00  0.00000000E+00
  0.00000000E+00  0.00000000E+00  0.00000000E+00
  0.00000000E+00  0.00000000E+00  0.00000000E+00
  0.00000000E+00  0.00000000E+00  0.00000000E+00
  0.00000000E+00  0.00000000E+00  0.00000000E+00
  0.00000000E+00  0.00000000E+00  0.00000000E+00
  0.00000000E+00  0.00000000E+00  0.00000000E+00
  0.00000000E+00  0.00000000E+00  0.00000000E+00
  0.00000000E+00  0.00000000E+00  0.00000000E+00
  0.00000000E+00  0.00000000E+00  0.00000000E+00
  0.00000000E+00  0.00000000E+00  0.00000000E+00
  0.00000000E+00  0.00000000E+00  0.00000000E+00
  0.00000000E+00  0.00000000E+00  0.00000000E+00
  0.00000000E+00  0.00000000E+00  0.00000000E+00
  0.00000000E+00  0.00000000E+00  0.00000000E+00
  0.00000000E+00  0.00000000E+00  0.00000000E+00
  0.00000000E+00  0.00000000E+00  0.00000000E+00
  0.00000000E+00  0.00000000E+00  0.00000000E+00
  0.00000000E+00  0.00000000E+00  0.00000000E+00
  0.00000000E+00  0.00000000E+00  0.00000000E+00
  0.00000000E+00  0.00000000E+00  0.00000000E+00
  0.00000000E+00  0.00000000E+00  0.00000000E+00
  0.00000000E+00  0.00000000E+00  0.00000000E+00
  0.00000000E+00  0.00000000E+00  0.00000000E+00
  0.00000000E+00  0.00000000E+00  0.00000000E+00
  0.00000000E+00  0.00000000E+00  0.00000000E+00
  0.00000000E+00  0.00000000E+00  0.00000000E+00
  0.00000000E+00  0.00000000E+00  0.00000000E+00
  0.00000000E+00  0.00000000E+00  0.00000000E+00
  0.00000000E+00  0.00000000E+00  0.00000000E+00
  0.00000000E+00  0.00000000E+00  0.00000000E+00
  0.00000000E+00  0.00000000E+00  0.00000000E+00
  0.00000000E+00  0.00000000E+00  0.00000000E+00
  0.00000000E+00  0.00000000E+00  0.00000000E+00
  0.00000000E+00  0.00000000E+00  0.00000000E+00
  0.00000000E+00  0.00000000E+00  0.00000000E+00
  0.00000000E+00  0.00000000E+00  0.00000000E+00
  0.00000000E+00  0.00000000E+00  0.00000000E+00
  0.00000000E+00  0.00000000E+00  0.00000000E+00
  0.00000000E+00  0.00000000E+00  0.00000000E+00
  0.00000000E+00  0.00000000E+00  0.00000000E+00
  0.00000000E+00  0.00000000E+00  0.00000000E+00
  0.00000000E+00  0.00000000E+00  0.00000000E+00
  0.00000000E+00  0.00000000E+00  0.00000000E+00
