POSCAR                                  
   3.54500000000000     
     0.5000000000000000    0.5000000000000000   -1.0000000000000000
     0.0000000000000000   -1.5000000000000000   -0.5000000000000000
    -2.0000000000000000    0.5000000000000000   -0.5000000000000000
   Ni   Fe
    12     4
Direct
  0.2608938388767700  0.6895015512397833  0.8141943372789744
  0.9999298500388345  0.2499301545107346  0.7522775676363910
  0.2499316495256407  0.9385312397371082  0.5614949104724651
  0.0000725802481282  0.4989733053451523  0.5010045115297477
 -0.0108958296766629  0.7480000611354128  0.2483160591675904
  0.7533900190354320  0.8138183317162752  0.6857214008815633
  0.4983508544087603  0.3744295528015105  0.6252724638798890
  0.4966026675068426  0.6236712896555707  0.3767733463230928
  0.2500765840136898  0.1875761367079933  0.3102210842474673
  0.2557908467564996  0.4372767086507935  0.0616983798651703
 -0.0057986990145934  0.0002247442920796  0.0008007029140474
  0.7516435610172921  0.0630727429668374  0.4372291915814418
  0.7640306496941357  0.5689593034584707  0.9306693165437260
  0.4957590601205960  0.1220667150154028  0.8699739774699566
  0.4859672902691228  0.8685359720440845  0.1318235675824423
  0.7542550771795050  0.3154321907227836  0.1925291826260342
 
  0.00000000E+00  0.00000000E+00  0.00000000E+00
  0.00000000E+00  0.00000000E+00  0.00000000E+00
  0.00000000E+00  0.00000000E+00  0.00000000E+00
  0.00000000E+00  0.00000000E+00  0.00000000E+00
  0.00000000E+00  0.00000000E+00  0.00000000E+00
  0.00000000E+00  0.00000000E+00  0.00000000E+00
  0.00000000E+00  0.00000000E+00  0.00000000E+00
  0.00000000E+00  0.00000000E+00  0.00000000E+00
  0.00000000E+00  0.00000000E+00  0.00000000E+00
  0.00000000E+00  0.00000000E+00  0.00000000E+00
  0.00000000E+00  0.00000000E+00  0.00000000E+00
  0.00000000E+00  0.00000000E+00  0.00000000E+00
  0.00000000E+00  0.00000000E+00  0.00000000E+00
  0.00000000E+00  0.00000000E+00  0.00000000E+00
  0.00000000E+00  0.00000000E+00  0.00000000E+00
  0.00000000E+00  0.00000000E+00  0.00000000E+00
