POSCAR                                  
   1.00000000000000     
     9.9295000000000009    0.0000000000000000    0.0000000000000000
     3.3098332300000002    9.3616224199999998    0.0000000000000000
     0.0000000000000000    0.0000000000000000   21.0805499999999988
   Fe   O    H 
    64     5     1
Selective dynamics
Direct
  0.0873890000000017  0.1626109999999983  0.0948739999999972   F   F   F
  0.0879742959262373  0.1605731869994145  0.2851647424735333   T   T   T
  0.2123890000000017  0.0376109999999983  0.1910219999999967   F   F   F
  0.2052525161874925  0.0304514249312717  0.3805277671163694   T   T   T
  0.3373890000000017  0.1626109999999983  0.0948739999999972   F   F   F
  0.3377094496893349  0.1628202641998371  0.2847948227440966   T   T   T
  0.4623890000000017  0.0376109999999983  0.1910219999999967   F   F   F
  0.4596673962533302  0.0361763212205446  0.3795854179905476   T   T   T
  0.5873890000000017  0.1626109999999983  0.0948739999999972   F   F   F
  0.5875802762296800  0.1622612680998188  0.2857238756874381   T   T   T
  0.7123890000000017  0.0376109999999983  0.1910219999999967   F   F   F
  0.7065899233971820  0.0290430341681542  0.3785425742348352   T   T   T
  0.8373890000000017  0.1626109999999983  0.0948739999999972   F   F   F
  0.8380506501715956  0.1627109248031147  0.2850705182017137   T   T   T
  0.9623890000000017  0.0376109999999983  0.1910219999999967   F   F   F
  0.9614238186453932  0.0328958318375641  0.3797292823367258   T   T   T
  0.0873890000000017  0.4126109999999983  0.0948739999999972   F   F   F
  0.0882340194038846  0.4112930411461733  0.2853730769188161   T   T   T
  0.2123890000000017  0.2876109999999983  0.1910219999999967   F   F   F
  0.2110281284132682  0.2846145404403089  0.3795020623561669   T   T   T
  0.3373890000000017  0.4126109999999983  0.0948739999999972   F   F   F
  0.3370344260561353  0.4125320045464704  0.2858481214140909   T   T   T
  0.4623890000000017  0.2876109999999983  0.1910219999999967   F   F   F
  0.4611891842256384  0.2854369704260336  0.3784087107157248   T   T   T
  0.5873890000000017  0.4126109999999983  0.0948739999999972   F   F   F
  0.5878594606313499  0.4130501726340299  0.2869380741021672   T   T   T
  0.7123890000000017  0.2876109999999983  0.1910219999999967   F   F   F
  0.7182200112648758  0.2832525846031118  0.3807511996214217   T   T   T
  0.8373890000000017  0.4126109999999983  0.0948739999999972   F   F   F
  0.8367327626580376  0.4132943929353274  0.2849903271178960   T   T   T
  0.9623890000000017  0.2876109999999983  0.1910219999999967   F   F   F
  0.9635849894640884  0.2883312410580174  0.3747713854957340   T   T   T
  0.0873890000000017  0.6626109999999983  0.0948739999999972   F   F   F
  0.0873485732804653  0.6614156491396486  0.2851343122709338   T   T   T
  0.2123890000000017  0.5376109999999983  0.1910219999999967   F   F   F
  0.2037409582758727  0.5314258923641191  0.3785491814379327   T   T   T
  0.3373890000000017  0.6626109999999983  0.0948739999999972   F   F   F
  0.3373492119125814  0.6631540654204926  0.2851279857867581   T   T   T
  0.4623890000000017  0.5376109999999983  0.1910219999999967   F   F   F
  0.4581241818751352  0.5432361803410615  0.3807680185972586   T   T   T
  0.5873890000000017  0.6626109999999983  0.0948739999999972   F   F   F
  0.5880403812865893  0.6620184064844352  0.2849820594809955   T   T   T
  0.7123890000000017  0.5376109999999983  0.1910219999999967   F   F   F
  0.7107005094459069  0.5354809885272402  0.3792451570605380   T   T   T
  0.8373890000000017  0.6626109999999983  0.0948739999999972   F   F   F
  0.8374658870779683  0.6629086718810058  0.2842770621293198   T   T   T
  0.9623890000000017  0.5376109999999983  0.1910219999999967   F   F   F
  0.9634600058647820  0.5328438075475859  0.3785155712182018   T   T   T
  0.0873890000000017  0.9126109999999983  0.0948739999999972   F   F   F
  0.0869025934689276  0.9122106835585981  0.2858099212032741   T   T   T
  0.2123890000000017  0.7876109999999983  0.1910219999999967   F   F   F
  0.2073790987323889  0.7864671877055045  0.3797688852352081   T   T   T
  0.3373890000000017  0.9126109999999983  0.0948739999999972   F   F   F
  0.3353363876380584  0.9131477678826698  0.2851947787762228   T   T   T
  0.4623890000000017  0.7876109999999983  0.1910219999999967   F   F   F
  0.4632585665996700  0.7886502872905155  0.3747455165124549   T   T   T
  0.5873890000000017  0.9126109999999983  0.0948739999999972   F   F   F
  0.5860983654163761  0.9136481428276184  0.2853800223880327   T   T   T
  0.7123890000000017  0.7876109999999983  0.1910219999999967   F   F   F
  0.7075834566184227  0.7888053497280367  0.3785313245179580   T   T   T
  0.8373890000000017  0.9126109999999983  0.0948739999999972   F   F   F
  0.8361808401041628  0.9127963867195987  0.2850611008744508   T   T   T
  0.9623890000000017  0.7876109999999983  0.1910219999999967   F   F   F
  0.9618212577620255  0.7875091962592577  0.3763568817983938   T   T   T
  0.3004901285349248  0.1256876330373373  0.4308180793600371   T   T   T
  0.8023360169641975  0.1167395194192480  0.4308053693106828   T   T   T
  0.8108051641807421  0.6360454693953699  0.4294405307841203   T   T   T
  0.2914613405655686  0.6273669971636409  0.4306532024632688   T   T   T
  0.5540033026234354  0.3789102288949522  0.4422427160883302   T   T   T
  0.5502600898108483  0.3751828093349090  0.4883461965756766   T   T   T
 
  0.00000000E+00  0.00000000E+00  0.00000000E+00
  0.00000000E+00  0.00000000E+00  0.00000000E+00
  0.00000000E+00  0.00000000E+00  0.00000000E+00
  0.00000000E+00  0.00000000E+00  0.00000000E+00
  0.00000000E+00  0.00000000E+00  0.00000000E+00
  0.00000000E+00  0.00000000E+00  0.00000000E+00
  0.00000000E+00  0.00000000E+00  0.00000000E+00
  0.00000000E+00  0.00000000E+00  0.00000000E+00
  0.00000000E+00  0.00000000E+00  0.00000000E+00
  0.00000000E+00  0.00000000E+00  0.00000000E+00
  0.00000000E+00  0.00000000E+00  0.00000000E+00
  0.00000000E+00  0.00000000E+00  0.00000000E+00
  0.00000000E+00  0.00000000E+00  0.00000000E+00
  0.00000000E+00  0.00000000E+00  0.00000000E+00
  0.00000000E+00  0.00000000E+00  0.00000000E+00
  0.00000000E+00  0.00000000E+00  0.00000000E+00
  0.00000000E+00  0.00000000E+00  0.00000000E+00
  0.00000000E+00  0.00000000E+00  0.00000000E+00
  0.00000000E+00  0.00000000E+00  0.00000000E+00
  0.00000000E+00  0.00000000E+00  0.00000000E+00
  0.00000000E+00  0.00000000E+00  0.00000000E+00
  0.00000000E+00  0.00000000E+00  0.00000000E+00
  0.00000000E+00  0.00000000E+00  0.00000000E+00
  0.00000000E+00  0.00000000E+00  0.00000000E+00
  0.00000000E+00  0.00000000E+00  0.00000000E+00
  0.00000000E+00  0.00000000E+00  0.00000000E+00
  0.00000000E+00  0.00000000E+00  0.00000000E+00
  0.00000000E+00  0.00000000E+00  0.00000000E+00
  0.00000000E+00  0.00000000E+00  0.00000000E+00
  0.00000000E+00  0.00000000E+00  0.00000000E+00
  0.00000000E+00  0.00000000E+00  0.00000000E+00
  0.00000000E+00  0.00000000E+00  0.00000000E+00
  0.00000000E+00  0.00000000E+00  0.00000000E+00
  0.00000000E+00  0.00000000E+00  0.00000000E+00
  0.00000000E+00  0.00000000E+00  0.00000000E+00
  0.00000000E+00  0.00000000E+00  0.00000000E+00
  0.00000000E+00  0.00000000E+00  0.00000000E+00
  0.00000000E+00  0.00000000E+00  0.00000000E+00
  0.00000000E+00  0.00000000E+00  0.00000000E+00
  0.00000000E+00  0.00000000E+00  0.00000000E+00
  0.00000000E+00  0.00000000E+00  0.00000000E+00
  0.00000000E+00  0.00000000E+00  0.00000000E+00
  0.00000000E+00  0.00000000E+00  0.00000000E+00
  0.00000000E+00  0.00000000E+00  0.00000000E+00
  0.00000000E+00  0.00000000E+00  0.00000000E+00
  0.00000000E+00  0.00000000E+00  0.00000000E+00
  0.00000000E+00  0.00000000E+00  0.00000000E+00
  0.00000000E+00  0.00000000E+00  0.00000000E+00
  0.00000000E+00  0.00000000E+00  0.00000000E+00
  0.00000000E+00  0.00000000E+00  0.00000000E+00
  0.00000000E+00  0.00000000E+00  0.00000000E+00
  0.00000000E+00  0.00000000E+00  0.00000000E+00
  0.00000000E+00  0.00000000E+00  0.00000000E+00
  0.00000000E+00  0.00000000E+00  0.00000000E+00
  0.00000000E+00  0.00000000E+00  0.00000000E+00
  0.00000000E+00  0.00000000E+00  0.00000000E+00
  0.00000000E+00  0.00000000E+00  0.00000000E+00
  0.00000000E+00  0.00000000E+00  0.00000000E+00
  0.00000000E+00  0.00000000E+00  0.00000000E+00
  0.00000000E+00  0.00000000E+00  0.00000000E+00
  0.00000000E+00  0.00000000E+00  0.00000000E+00
  0.00000000E+00  0.00000000E+00  0.00000000E+00
  0.00000000E+00  0.00000000E+00  0.00000000E+00
  0.00000000E+00  0.00000000E+00  0.00000000E+00
  0.00000000E+00  0.00000000E+00  0.00000000E+00
  0.00000000E+00  0.00000000E+00  0.00000000E+00
  0.00000000E+00  0.00000000E+00  0.00000000E+00
  0.00000000E+00  0.00000000E+00  0.00000000E+00
  0.00000000E+00  0.00000000E+00  0.00000000E+00
  0.00000000E+00  0.00000000E+00  0.00000000E+00
