POSCAR                                  
   1.00000000000000     
    10.1116299999999999    0.0000000000000000    0.0000000000000000
    -5.0558149999999999    8.7569284500000002    0.0000000000000000
     0.0000000000000000    0.0000000000000000   21.2664299999999997
   Fe   Ni   O 
    48    16     4
Selective dynamics
Direct
  0.0019470000000013  0.9992000000000019  0.0968289999999996   F   F   F
  0.0006925279712675  0.0029156944261715  0.3810197367073087   T   T   T
  0.4988060000000019  0.9964760000000012  0.0961449999999999   F   F   F
  0.5035808579649483  0.0009038378372068  0.3790576494253841   T   T   T
  0.7431600000000032  0.9964590000000015  0.0944310000000002   F   F   F
  0.7493547484383924  0.9956702980827288  0.3877589963263688   T   T   T
  0.2491360000000000  0.2532259999999980  0.0968099999999978   F   F   F
  0.2493627316418170  0.2471045498191913  0.3849300202937584   T   T   T
  0.0887320000000003  0.1614939999999976  0.1905920000000023   F   F   F
  0.3296259999999975  0.1660979999999981  0.1950629999999975   F   F   F
  0.1617608943909943  0.0753906349319564  0.2908429182193899   T   T   T
  0.5833299999999966  0.1655030000000011  0.1944370000000006   F   F   F
  0.4142122330272358  0.0815845253935308  0.2887621145242605   T   T   T
  0.8265150000000006  0.1665100000000024  0.1932630000000017   F   F   F
  0.6673803835340451  0.0819492453047772  0.2881285461815679   T   T   T
  0.0032080000000008  0.5109089999999981  0.0945129999999992   F   F   F
  0.0001898375905256  0.5034707542919108  0.3738583944247722   T   T   T
  0.2558689999999970  0.5057770000000019  0.0973460000000017   F   F   F
  0.2493833789240369  0.4953458390613292  0.3834402069312333   T   T   T
  0.4996020000000030  0.5030489999999972  0.0975409999999997   F   F   F
  0.4951698284671906  0.4947077691471975  0.3765021261693420   T   T   T
  0.3385990000000021  0.4158370000000033  0.1893930000000026   F   F   F
  0.7567909999999998  0.5080430000000007  0.0963089999999980   F   F   F
  0.7451130238439703  0.4909902216304900  0.3867058611046090   T   T   T
  0.5863360000000029  0.4222940000000008  0.1942359999999965   F   F   F
  0.4160875097753660  0.3356868336606524  0.2865159841906291   T   T   T
  0.8267710000000008  0.4167619999999985  0.1919949999999986   F   F   F
  0.6681052162092413  0.3318863876090390  0.2897152023197194   T   T   T
  0.9918059999999969  0.7470280000000002  0.0957130000000035   F   F   F
  0.0025648321482450  0.7539602573222695  0.3860216113916835   T   T   T
  0.2510460000000023  0.7456389999999971  0.0970360000000028   F   F   F
  0.2514040011633298  0.7540167991039652  0.3856077439735159   T   T   T
  0.0860460000000032  0.6708690000000033  0.1922020000000018   F   F   F
  0.5015369999999990  0.7490570000000005  0.0975290000000015   F   F   F
  0.5063507718793829  0.7520354821337278  0.3847959288841380   T   T   T
  0.3300589999999985  0.6613559999999978  0.1901859999999971   F   F   F
  0.1685161739641003  0.5829824512416550  0.2851588983852764   T   T   T
  0.7477749999999972  0.7486310000000032  0.0940450000000013   F   F   F
  0.7497572100982239  0.7489370435758005  0.3813072507853974   T   T   T
  0.5800819999999973  0.6609630000000024  0.1915270000000007   F   F   F
  0.8321370000000030  0.6619949999999974  0.1930350000000018   F   F   F
  0.6651279687672798  0.5851214315046676  0.2856479938720966   T   T   T
  0.9098575271961380  0.5857296238282927  0.2857856637249370   T   T   T
  0.0860360000000000  0.9163550000000029  0.1937119999999979   F   F   F
  0.3274299999999997  0.9193220000000011  0.1929370000000006   F   F   F
  0.1606332664012911  0.8259365455334304  0.2909799076700281   T   T   T
  0.6627692942690899  0.8354050622642859  0.2884702740850713   T   T   T
  0.9063155510589027  0.8260441219393257  0.2875711517850803   T   T   T
  0.2491649999999979  0.9981310000000008  0.0955980000000025   F   F   F
  0.2515672971192231  0.9979493016947103  0.3884401763237619   T   T   T
  0.0012970000000010  0.2497419999999977  0.0965860000000021   F   F   F
  0.0052535402440768  0.2537373165391656  0.3817137542147364   T   T   T
  0.4993309999999980  0.2516269999999992  0.0953730000000022   F   F   F
  0.5022287451682672  0.2494159110705638  0.3853232479838482   T   T   T
  0.7494420000000019  0.2507129999999975  0.0957310000000007   F   F   F
  0.7513140561724896  0.2504225303254231  0.3848074020621013   T   T   T
  0.9175359848948688  0.0829692978643948  0.2865859427406789   T   T   T
  0.0826080000000005  0.4170799999999986  0.1922530000000009   F   F   F
  0.1681699148294058  0.3318800458467166  0.2866766009013375   T   T   T
  0.9153754195472814  0.3318404322178452  0.2851980600370823   T   T   T
  0.4138931982423699  0.5837871948455344  0.2856690917714673   T   T   T
  0.5819070000000011  0.9152690000000021  0.1924130000000019   F   F   F
  0.4138488158012521  0.8302573925805845  0.2862744757154587   T   T   T
  0.8339989999999986  0.9145710000000022  0.1924040000000034   F   F   F
  0.8295535197128672  0.6649620243836196  0.4372135050972190   T   T   T
  0.3317519010883743  0.1731141412933894  0.4402218369254527   T   T   T
  0.3336954489630273  0.6629217577386299  0.4367372976322059   T   T   T
  0.8382717396636039  0.1628908415292614  0.4374913814739614   T   T   T
 
  0.00000000E+00  0.00000000E+00  0.00000000E+00
  0.00000000E+00  0.00000000E+00  0.00000000E+00
  0.00000000E+00  0.00000000E+00  0.00000000E+00
  0.00000000E+00  0.00000000E+00  0.00000000E+00
  0.00000000E+00  0.00000000E+00  0.00000000E+00
  0.00000000E+00  0.00000000E+00  0.00000000E+00
  0.00000000E+00  0.00000000E+00  0.00000000E+00
  0.00000000E+00  0.00000000E+00  0.00000000E+00
  0.00000000E+00  0.00000000E+00  0.00000000E+00
  0.00000000E+00  0.00000000E+00  0.00000000E+00
  0.00000000E+00  0.00000000E+00  0.00000000E+00
  0.00000000E+00  0.00000000E+00  0.00000000E+00
  0.00000000E+00  0.00000000E+00  0.00000000E+00
  0.00000000E+00  0.00000000E+00  0.00000000E+00
  0.00000000E+00  0.00000000E+00  0.00000000E+00
  0.00000000E+00  0.00000000E+00  0.00000000E+00
  0.00000000E+00  0.00000000E+00  0.00000000E+00
  0.00000000E+00  0.00000000E+00  0.00000000E+00
  0.00000000E+00  0.00000000E+00  0.00000000E+00
  0.00000000E+00  0.00000000E+00  0.00000000E+00
  0.00000000E+00  0.00000000E+00  0.00000000E+00
  0.00000000E+00  0.00000000E+00  0.00000000E+00
  0.00000000E+00  0.00000000E+00  0.00000000E+00
  0.00000000E+00  0.00000000E+00  0.00000000E+00
  0.00000000E+00  0.00000000E+00  0.00000000E+00
  0.00000000E+00  0.00000000E+00  0.00000000E+00
  0.00000000E+00  0.00000000E+00  0.00000000E+00
  0.00000000E+00  0.00000000E+00  0.00000000E+00
  0.00000000E+00  0.00000000E+00  0.00000000E+00
  0.00000000E+00  0.00000000E+00  0.00000000E+00
  0.00000000E+00  0.00000000E+00  0.00000000E+00
  0.00000000E+00  0.00000000E+00  0.00000000E+00
  0.00000000E+00  0.00000000E+00  0.00000000E+00
  0.00000000E+00  0.00000000E+00  0.00000000E+00
  0.00000000E+00  0.00000000E+00  0.00000000E+00
  0.00000000E+00  0.00000000E+00  0.00000000E+00
  0.00000000E+00  0.00000000E+00  0.00000000E+00
  0.00000000E+00  0.00000000E+00  0.00000000E+00
  0.00000000E+00  0.00000000E+00  0.00000000E+00
  0.00000000E+00  0.00000000E+00  0.00000000E+00
  0.00000000E+00  0.00000000E+00  0.00000000E+00
  0.00000000E+00  0.00000000E+00  0.00000000E+00
  0.00000000E+00  0.00000000E+00  0.00000000E+00
  0.00000000E+00  0.00000000E+00  0.00000000E+00
  0.00000000E+00  0.00000000E+00  0.00000000E+00
  0.00000000E+00  0.00000000E+00  0.00000000E+00
  0.00000000E+00  0.00000000E+00  0.00000000E+00
  0.00000000E+00  0.00000000E+00  0.00000000E+00
  0.00000000E+00  0.00000000E+00  0.00000000E+00
  0.00000000E+00  0.00000000E+00  0.00000000E+00
  0.00000000E+00  0.00000000E+00  0.00000000E+00
  0.00000000E+00  0.00000000E+00  0.00000000E+00
  0.00000000E+00  0.00000000E+00  0.00000000E+00
  0.00000000E+00  0.00000000E+00  0.00000000E+00
  0.00000000E+00  0.00000000E+00  0.00000000E+00
  0.00000000E+00  0.00000000E+00  0.00000000E+00
  0.00000000E+00  0.00000000E+00  0.00000000E+00
  0.00000000E+00  0.00000000E+00  0.00000000E+00
  0.00000000E+00  0.00000000E+00  0.00000000E+00
  0.00000000E+00  0.00000000E+00  0.00000000E+00
  0.00000000E+00  0.00000000E+00  0.00000000E+00
  0.00000000E+00  0.00000000E+00  0.00000000E+00
  0.00000000E+00  0.00000000E+00  0.00000000E+00
  0.00000000E+00  0.00000000E+00  0.00000000E+00
  0.00000000E+00  0.00000000E+00  0.00000000E+00
  0.00000000E+00  0.00000000E+00  0.00000000E+00
  0.00000000E+00  0.00000000E+00  0.00000000E+00
  0.00000000E+00  0.00000000E+00  0.00000000E+00
