POSCAR                                  
   1.00000000000000     
    10.0267700000000008    0.0000000000000000    0.0000000000000000
    -5.0133850000000004    8.6834375399999999    0.0000000000000000
     0.0000000000000000    0.0000000000000000   21.1891800000000003
   Ni   Fe   O    H 
    49    15     5     1
Selective dynamics
Direct
  0.9985185188307568  0.9995936462622055  0.2874243288085054   F   F   F
  0.2484276239684249  0.0002260370463461  0.2850086517545733   F   F   F
  0.4984289178963692  0.9987605850945016  0.2870639470155183   F   F   F
  0.7478290687223392  0.9976860165147485  0.2864264437457962   F   F   F
  0.9987192433539889  0.2477672526148922  0.2870670568971505   F   F   F
  0.2509685939918995  0.2515681353328389  0.2873098867625785   F   F   F
  0.0828819999999979  0.1663319999999970  0.0956759999999974   F   F   F
  0.0787398920097502  0.1593638990918862  0.3846306328982294   F   F   F
  0.4987803616680893  0.2492437052031278  0.2864716675820347   F   F   F
  0.3329390000000032  0.1668579999999977  0.0957420000000013   F   F   F
  0.3304637829966097  0.1648540450485640  0.3786544873001603   F   F   F
  0.7499855693576478  0.2515288462877194  0.2882249251183211   F   F   F
  0.5823070000000001  0.1672009999999986  0.0967029999999980   F   F   F
  0.5774977634474325  0.1571665023237898  0.3831622991563393   F   F   F
  0.8340320000000006  0.1667240000000021  0.0964510000000018   F   F   F
  0.8310331513733331  0.1627041037227599  0.3790852167328751   F   F   F
  0.6655810000000031  0.0830550000000017  0.1925829999999991   F   F   F
  0.9163970000000035  0.0820310000000006  0.1920489999999972   F   F   F
  0.0014350235042215  0.4998908251387277  0.2862694665362397   F   F   F
  0.0809220000000010  0.4160970000000006  0.0959479999999999   F   F   F
  0.0789166164541300  0.4154601354174474  0.3836859139479856   F   F   F
  0.1661179999999973  0.3339519999999965  0.1920750000000027   F   F   F
  0.7521234019720069  0.5020514239828060  0.2879360231769255   F   F   F
  0.5835730000000012  0.4161720000000031  0.0959330000000023   F   F   F
  0.5761691742770623  0.4140271462946004  0.3849629044368328   F   F   F
  0.0000450690990874  0.7504245770652389  0.2865587611883953   F   F   F
  0.2487962891624349  0.7488481197043342  0.2849844569176554   F   F   F
  0.0837580000000031  0.6681039999999996  0.0947969999999998   F   F   F
  0.0843955747079548  0.6623104277454672  0.3817887589878879   F   F   F
  0.5005153927397288  0.7485748480384515  0.2865428915240500   F   F   F
  0.3329740000000001  0.6672769999999986  0.0943880000000021   F   F   F
  0.3311300469455105  0.6636282754067651  0.3783925576708214   F   F   F
  0.7518438272040413  0.7474482665604896  0.2875371956321118   F   F   F
  0.5829809999999966  0.6666820000000016  0.0945090000000022   F   F   F
  0.5760504062605136  0.6591536948992953  0.3846586454245724   F   F   F
  0.4166099999999986  0.5820020000000028  0.1908170000000027   F   F   F
  0.8339590000000001  0.6677060000000026  0.0949790000000021   F   F   F
  0.8319365176380913  0.6634437481658466  0.3853298726677110   F   F   F
  0.9170829999999981  0.5832389999999990  0.1907939999999968   F   F   F
  0.0829170000000019  0.9168579999999977  0.0951859999999982   F   F   F
  0.0829944530387934  0.9186509245840639  0.3827487652557409   F   F   F
  0.3342060000000018  0.9170540000000003  0.0953820000000007   F   F   F
  0.3368589335474184  0.9170937717379388  0.3823821281834441   F   F   F
  0.1667089999999973  0.8352420000000009  0.1913649999999976   F   F   F
  0.4170349999999985  0.8321490000000011  0.1920590000000004   F   F   F
  0.8323310000000035  0.9171499999999995  0.0963369999999983   F   F   F
  0.8361949984856594  0.9180864401759052  0.3840487893990527   F   F   F
  0.6662389999999974  0.8333700000000022  0.1923409999999990   F   F   F
  0.9170590000000018  0.8331950000000035  0.1921620000000033   F   F   F
  0.1616849999999985  0.0821150000000017  0.1913059999999973   F   F   F
  0.4160749999999993  0.0780710000000013  0.1917729999999978   F   F   F
  0.2484783101105990  0.4977010608610897  0.2874750197968723   F   F   F
  0.5057185526591397  0.5018596912315445  0.2894269243674614   F   F   F
  0.3313410000000019  0.4171430000000029  0.0957760000000007   F   F   F
  0.3350022786754678  0.4145680846079642  0.3871268952838065   F   F   F
  0.4163840000000008  0.3314430000000002  0.1925219999999968   F   F   F
  0.8335480000000004  0.4183900000000023  0.0944879999999984   F   F   F
  0.8352826605967181  0.4145936898695268  0.3842290865809872   F   F   F
  0.6673240000000007  0.3324059999999989  0.1943550000000016   F   F   F
  0.9144640000000024  0.3269549999999981  0.1939649999999986   F   F   F
  0.1691420000000008  0.5883340000000032  0.1894780000000011   F   F   F
  0.6696159999999978  0.5892890000000008  0.1898600000000030   F   F   F
  0.5831039999999987  0.9165149999999969  0.0958350000000010   F   F   F
  0.5794811160857094  0.9163450638014581  0.3819051883700979   F   F   F
  0.6654237468979858  0.3256453219572961  0.4355391925650309   F   F   F
  0.1691395944062677  0.8326696336173924  0.4343194362652696   F   F   F
  0.1618829660392151  0.3296829327101491  0.4372738951651627   F   F   F
  0.6624677034351762  0.8362542808031179  0.4352421808324891   F   F   F
  0.8450629846508377  0.6729697626372442  0.4704524650114905   T   T   T
  0.9516410558611242  0.7203259834245799  0.4847530870870090   T   T   T
 
  0.00000000E+00  0.00000000E+00  0.00000000E+00
  0.00000000E+00  0.00000000E+00  0.00000000E+00
  0.00000000E+00  0.00000000E+00  0.00000000E+00
  0.00000000E+00  0.00000000E+00  0.00000000E+00
  0.00000000E+00  0.00000000E+00  0.00000000E+00
  0.00000000E+00  0.00000000E+00  0.00000000E+00
  0.00000000E+00  0.00000000E+00  0.00000000E+00
  0.00000000E+00  0.00000000E+00  0.00000000E+00
  0.00000000E+00  0.00000000E+00  0.00000000E+00
  0.00000000E+00  0.00000000E+00  0.00000000E+00
  0.00000000E+00  0.00000000E+00  0.00000000E+00
  0.00000000E+00  0.00000000E+00  0.00000000E+00
  0.00000000E+00  0.00000000E+00  0.00000000E+00
  0.00000000E+00  0.00000000E+00  0.00000000E+00
  0.00000000E+00  0.00000000E+00  0.00000000E+00
  0.00000000E+00  0.00000000E+00  0.00000000E+00
  0.00000000E+00  0.00000000E+00  0.00000000E+00
  0.00000000E+00  0.00000000E+00  0.00000000E+00
  0.00000000E+00  0.00000000E+00  0.00000000E+00
  0.00000000E+00  0.00000000E+00  0.00000000E+00
  0.00000000E+00  0.00000000E+00  0.00000000E+00
  0.00000000E+00  0.00000000E+00  0.00000000E+00
  0.00000000E+00  0.00000000E+00  0.00000000E+00
  0.00000000E+00  0.00000000E+00  0.00000000E+00
  0.00000000E+00  0.00000000E+00  0.00000000E+00
  0.00000000E+00  0.00000000E+00  0.00000000E+00
  0.00000000E+00  0.00000000E+00  0.00000000E+00
  0.00000000E+00  0.00000000E+00  0.00000000E+00
  0.00000000E+00  0.00000000E+00  0.00000000E+00
  0.00000000E+00  0.00000000E+00  0.00000000E+00
  0.00000000E+00  0.00000000E+00  0.00000000E+00
  0.00000000E+00  0.00000000E+00  0.00000000E+00
  0.00000000E+00  0.00000000E+00  0.00000000E+00
  0.00000000E+00  0.00000000E+00  0.00000000E+00
  0.00000000E+00  0.00000000E+00  0.00000000E+00
  0.00000000E+00  0.00000000E+00  0.00000000E+00
  0.00000000E+00  0.00000000E+00  0.00000000E+00
  0.00000000E+00  0.00000000E+00  0.00000000E+00
  0.00000000E+00  0.00000000E+00  0.00000000E+00
  0.00000000E+00  0.00000000E+00  0.00000000E+00
  0.00000000E+00  0.00000000E+00  0.00000000E+00
  0.00000000E+00  0.00000000E+00  0.00000000E+00
  0.00000000E+00  0.00000000E+00  0.00000000E+00
  0.00000000E+00  0.00000000E+00  0.00000000E+00
  0.00000000E+00  0.00000000E+00  0.00000000E+00
  0.00000000E+00  0.00000000E+00  0.00000000E+00
  0.00000000E+00  0.00000000E+00  0.00000000E+00
  0.00000000E+00  0.00000000E+00  0.00000000E+00
  0.00000000E+00  0.00000000E+00  0.00000000E+00
  0.00000000E+00  0.00000000E+00  0.00000000E+00
  0.00000000E+00  0.00000000E+00  0.00000000E+00
  0.00000000E+00  0.00000000E+00  0.00000000E+00
  0.00000000E+00  0.00000000E+00  0.00000000E+00
  0.00000000E+00  0.00000000E+00  0.00000000E+00
  0.00000000E+00  0.00000000E+00  0.00000000E+00
  0.00000000E+00  0.00000000E+00  0.00000000E+00
  0.00000000E+00  0.00000000E+00  0.00000000E+00
  0.00000000E+00  0.00000000E+00  0.00000000E+00
  0.00000000E+00  0.00000000E+00  0.00000000E+00
  0.00000000E+00  0.00000000E+00  0.00000000E+00
  0.00000000E+00  0.00000000E+00  0.00000000E+00
  0.00000000E+00  0.00000000E+00  0.00000000E+00
  0.00000000E+00  0.00000000E+00  0.00000000E+00
  0.00000000E+00  0.00000000E+00  0.00000000E+00
  0.00000000E+00  0.00000000E+00  0.00000000E+00
  0.00000000E+00  0.00000000E+00  0.00000000E+00
  0.00000000E+00  0.00000000E+00  0.00000000E+00
  0.00000000E+00  0.00000000E+00  0.00000000E+00
  0.00000000E+00  0.00000000E+00  0.00000000E+00
  0.00000000E+00  0.00000000E+00  0.00000000E+00
