POSCAR                                  
   1.00000000000000     
    10.1003100000000003    0.0000000000000000    0.0000000000000000
    -5.0501550000000002    8.7471250499999993    0.0000000000000000
     0.0000000000000000    0.0000000000000000   21.3016906000000006
   Ni   Fe
    29    35
Selective dynamics
Direct
  0.0000249057613146  0.0015719175271514  0.2888450869821781   T   T   T
  0.2484092925008383  0.9988050385392171  0.2895817185163310   T   T   T
  0.5009695990650513  0.0037930518363609  0.2906086073585428   T   T   T
  0.9996446521910727  0.2512157231490946  0.2896307161243854   T   T   T
  0.2506698144480737  0.2500906032853720  0.2888592284802343   T   T   T
  0.3344680000000011  0.1651460000000000  0.0963648700000022   F   F   F
  0.3349649658479379  0.1651623557334858  0.3828599707651748   T   T   T
  0.7495026504121682  0.2506836499163967  0.2914864935099217   T   T   T
  0.4183749999999975  0.0839399999999983  0.1926431699999966   F   F   F
  0.8320319999999981  0.1658839999999984  0.0982103899999984   F   F   F
  0.8318472465214626  0.1642219747401938  0.3848619509015450   T   T   T
  0.6679699999999968  0.0847229999999968  0.1942148899999978   F   F   F
  0.0009302734306331  0.4989930102158411  0.2908188673349201   T   T   T
  0.7496389735872953  0.5002630593043094  0.2895372130830793   T   T   T
  0.5831019999999967  0.4132040000000003  0.0968384399999991   F   F   F
  0.5847537405539427  0.4177317332657182  0.3844493887401796   T   T   T
  0.4196099999999987  0.3333709999999996  0.1926649500000011   F   F   F
  0.8311970000000031  0.4147589999999965  0.0984258399999973   F   F   F
  0.8335000382472018  0.4164588280545019  0.3834680657950074   T   T   T
  0.9185590000000019  0.3350160000000031  0.1942090800000003   F   F   F
  0.9988233209942123  0.7496646061019447  0.2901135258576844   T   T   T
  0.0819509999999966  0.6657039999999981  0.0974792700000009   F   F   F
  0.0862686801336352  0.6670435536891262  0.3841085287674346   T   T   T
  0.7532042428764498  0.7511820107524230  0.2906987057098362   T   T   T
  0.4173729999999978  0.5835239999999970  0.1947546600000010   F   F   F
  0.9155080000000027  0.5846190000000036  0.1939509500000014   F   F   F
  0.1668289999999999  0.8349079999999987  0.1930909000000014   F   F   F
  0.4171529999999990  0.8333879999999994  0.1953118599999968   F   F   F
  0.9198510000000013  0.8326369999999983  0.1939207499999966   F   F   F
  0.7486375038847584  0.0015492082518023  0.2918521126608482   T   T   T
  0.0847580000000008  0.1693270000000027  0.0938892599999974   F   F   F
  0.0842215633972998  0.1690143844232850  0.3829685561923242   T   T   T
  0.4961033958324350  0.2466210624609317  0.2904375713374421   T   T   T
  0.1713960000000014  0.0833930000000009  0.1938812599999977   F   F   F
  0.5877610000000004  0.1693130000000025  0.0961871700000003   F   F   F
  0.5906057849626976  0.1756566524887333  0.3877235730274933   T   T   T
  0.9169309999999982  0.0858149999999966  0.1926260400000004   F   F   F
  0.2459416583553562  0.4973788741268095  0.2931241016047608   T   T   T
  0.0743840000000020  0.4150959999999984  0.0974467500000031   F   F   F
  0.0771155127370662  0.4159906335739478  0.3888849883793029   T   T   T
  0.5027473222303840  0.5011064406995871  0.2897232432382353   T   T   T
  0.3391719999999978  0.4151450000000025  0.0969900099999990   F   F   F
  0.3347940193702286  0.4130922261032666  0.3874564484236984   T   T   T
  0.1708140000000000  0.3372420000000034  0.1940273100000027   F   F   F
  0.6726469999999978  0.3359809999999968  0.1945244099999996   F   F   F
  0.2471393151022596  0.7549743462355067  0.2909072600875078   T   T   T
  0.4990895430502462  0.7509739598596568  0.2913577173780553   T   T   T
  0.3320849999999993  0.6626210000000015  0.0993602200000012   F   F   F
  0.3325868240922176  0.6636070412773591  0.3903288810216594   T   T   T
  0.1647060000000025  0.5862709999999964  0.1958487400000024   F   F   F
  0.5857939999999999  0.6682610000000011  0.0968404799999973   F   F   F
  0.5877235860211130  0.6719461168018555  0.3890242256108536   T   T   T
  0.8308809999999980  0.6587749999999986  0.0965898999999979   F   F   F
  0.8344994039040046  0.6610694633837539  0.3847865789132001   T   T   T
  0.6676250000000010  0.5842620000000025  0.1937215600000002   F   F   F
  0.0823549999999997  0.9142709999999994  0.0946494200000032   F   F   F
  0.0849350399705173  0.9156123727333991  0.3840671881711515   T   T   T
  0.3339440000000025  0.9158430000000024  0.0982501700000000   F   F   F
  0.3398051711871304  0.9204524792561131  0.3857639193909677   T   T   T
  0.5823159999999987  0.9186520000000016  0.0990234000000001   F   F   F
  0.5815126257149004  0.9180019410807816  0.3913310853923733   T   T   T
  0.8341939999999965  0.9144939999999977  0.0965056900000008   F   F   F
  0.8381347724723014  0.9151158794022081  0.3873646158851827   T   T   T
  0.6684139999999985  0.8335110000000014  0.1951178999999996   F   F   F
 
  0.00000000E+00  0.00000000E+00  0.00000000E+00
  0.00000000E+00  0.00000000E+00  0.00000000E+00
  0.00000000E+00  0.00000000E+00  0.00000000E+00
  0.00000000E+00  0.00000000E+00  0.00000000E+00
  0.00000000E+00  0.00000000E+00  0.00000000E+00
  0.00000000E+00  0.00000000E+00  0.00000000E+00
  0.00000000E+00  0.00000000E+00  0.00000000E+00
  0.00000000E+00  0.00000000E+00  0.00000000E+00
  0.00000000E+00  0.00000000E+00  0.00000000E+00
  0.00000000E+00  0.00000000E+00  0.00000000E+00
  0.00000000E+00  0.00000000E+00  0.00000000E+00
  0.00000000E+00  0.00000000E+00  0.00000000E+00
  0.00000000E+00  0.00000000E+00  0.00000000E+00
  0.00000000E+00  0.00000000E+00  0.00000000E+00
  0.00000000E+00  0.00000000E+00  0.00000000E+00
  0.00000000E+00  0.00000000E+00  0.00000000E+00
  0.00000000E+00  0.00000000E+00  0.00000000E+00
  0.00000000E+00  0.00000000E+00  0.00000000E+00
  0.00000000E+00  0.00000000E+00  0.00000000E+00
  0.00000000E+00  0.00000000E+00  0.00000000E+00
  0.00000000E+00  0.00000000E+00  0.00000000E+00
  0.00000000E+00  0.00000000E+00  0.00000000E+00
  0.00000000E+00  0.00000000E+00  0.00000000E+00
  0.00000000E+00  0.00000000E+00  0.00000000E+00
  0.00000000E+00  0.00000000E+00  0.00000000E+00
  0.00000000E+00  0.00000000E+00  0.00000000E+00
  0.00000000E+00  0.00000000E+00  0.00000000E+00
  0.00000000E+00  0.00000000E+00  0.00000000E+00
  0.00000000E+00  0.00000000E+00  0.00000000E+00
  0.00000000E+00  0.00000000E+00  0.00000000E+00
  0.00000000E+00  0.00000000E+00  0.00000000E+00
  0.00000000E+00  0.00000000E+00  0.00000000E+00
  0.00000000E+00  0.00000000E+00  0.00000000E+00
  0.00000000E+00  0.00000000E+00  0.00000000E+00
  0.00000000E+00  0.00000000E+00  0.00000000E+00
  0.00000000E+00  0.00000000E+00  0.00000000E+00
  0.00000000E+00  0.00000000E+00  0.00000000E+00
  0.00000000E+00  0.00000000E+00  0.00000000E+00
  0.00000000E+00  0.00000000E+00  0.00000000E+00
  0.00000000E+00  0.00000000E+00  0.00000000E+00
  0.00000000E+00  0.00000000E+00  0.00000000E+00
  0.00000000E+00  0.00000000E+00  0.00000000E+00
  0.00000000E+00  0.00000000E+00  0.00000000E+00
  0.00000000E+00  0.00000000E+00  0.00000000E+00
  0.00000000E+00  0.00000000E+00  0.00000000E+00
  0.00000000E+00  0.00000000E+00  0.00000000E+00
  0.00000000E+00  0.00000000E+00  0.00000000E+00
  0.00000000E+00  0.00000000E+00  0.00000000E+00
  0.00000000E+00  0.00000000E+00  0.00000000E+00
  0.00000000E+00  0.00000000E+00  0.00000000E+00
  0.00000000E+00  0.00000000E+00  0.00000000E+00
  0.00000000E+00  0.00000000E+00  0.00000000E+00
  0.00000000E+00  0.00000000E+00  0.00000000E+00
  0.00000000E+00  0.00000000E+00  0.00000000E+00
  0.00000000E+00  0.00000000E+00  0.00000000E+00
  0.00000000E+00  0.00000000E+00  0.00000000E+00
  0.00000000E+00  0.00000000E+00  0.00000000E+00
  0.00000000E+00  0.00000000E+00  0.00000000E+00
  0.00000000E+00  0.00000000E+00  0.00000000E+00
  0.00000000E+00  0.00000000E+00  0.00000000E+00
  0.00000000E+00  0.00000000E+00  0.00000000E+00
  0.00000000E+00  0.00000000E+00  0.00000000E+00
  0.00000000E+00  0.00000000E+00  0.00000000E+00
  0.00000000E+00  0.00000000E+00  0.00000000E+00
