POSCAR                                  
   1.00000000000000     
    10.1003100000000003    0.0000000000000000    0.0000000000000000
    -5.0501550000000002    8.7471250499999993    0.0000000000000000
     0.0000000000000000    0.0000000000000000   21.3016906000000006
   Ni   Fe
    29    35
Selective dynamics
Direct
  0.0000249057613172  0.0015719175271527  0.2888450869821808   T   T   T
  0.2484092925008401 -0.0011949614607835  0.2895817185163288   T   T   T
  0.5009695990650547  0.0037930518363636  0.2906086073585438   T   T   T
 -0.0003553478089263  0.2512157231490953  0.2896307161243866   T   T   T
  0.2506698144480772  0.2500906032853731  0.2888592284802333   T   T   T
  0.3344680000000011  0.1651460000000000  0.0963648700000022   F   F   F
  0.3349649658479359  0.1651623557334859  0.3828599707651744   T   T   T
  0.7495026504121701  0.2506836499163976  0.2914864935099196   T   T   T
  0.4183749999999975  0.0839399999999983  0.1926431699999966   F   F   F
  0.8320319999999981  0.1658839999999984  0.0982103899999984   F   F   F
  0.8318472465214644  0.1642219747401961  0.3848619509015471   T   T   T
  0.6679699999999968  0.0847229999999968  0.1942148899999978   F   F   F
  0.0009302734306313  0.4989930102158417  0.2908188673349182   T   T   T
  0.7496389735872978  0.5002630593043099  0.2895372130830772   T   T   T
  0.5831019999999967  0.4132040000000003  0.0968384399999991   F   F   F
  0.5847537405539415  0.4177317332657170  0.3844493887401829   T   T   T
  0.4196099999999987  0.3333709999999996  0.1926649500000011   F   F   F
  0.8311970000000031  0.4147589999999965  0.0984258399999973   F   F   F
  0.8335000382471990  0.4164588280545043  0.3834680657950043   T   T   T
  0.9185590000000019  0.3350160000000031  0.1942090800000003   F   F   F
 -0.0011766790057892  0.7496646061019444  0.2901135258576824   T   T   T
  0.0819509999999966  0.6657039999999981  0.0974792700000009   F   F   F
  0.0862686801336345  0.6670435536891229  0.3841085287674368   T   T   T
  0.7532042428764526  0.7511820107524257  0.2906987057098366   T   T   T
  0.4173729999999978  0.5835239999999970  0.1947546600000010   F   F   F
  0.9155080000000027  0.5846190000000036  0.1939509500000014   F   F   F
  0.1668289999999999  0.8349079999999987  0.1930909000000014   F   F   F
  0.4171529999999990  0.8333879999999994  0.1953118599999968   F   F   F
  0.9198510000000013  0.8326369999999983  0.1939207499999966   F   F   F
  0.7486375038847553  0.0015492082518021  0.2918521126608453   T   T   T
  0.0847580000000008  0.1693270000000027  0.0938892599999974   F   F   F
  0.0842215633972986  0.1690143844232823  0.3829685561923243   T   T   T
  0.4961033958324367  0.2466210624609343  0.2904375713374444   T   T   T
  0.1713960000000014  0.0833930000000009  0.1938812599999977   F   F   F
  0.5877610000000004  0.1693130000000025  0.0961871700000003   F   F   F
  0.5906057849626942  0.1756566524887357  0.3877235730274918   T   T   T
  0.9169309999999982  0.0858149999999966  0.1926260400000004   F   F   F
  0.2459416583553541  0.4973788741268090  0.2931241016047622   T   T   T
  0.0743840000000020  0.4150959999999984  0.0974467500000031   F   F   F
  0.0771155127370650  0.4159906335739457  0.3888849883793004   T   T   T
  0.5027473222303828  0.5011064406995875  0.2897232432382349   T   T   T
  0.3391719999999978  0.4151450000000025  0.0969900099999990   F   F   F
  0.3347940193702279  0.4130922261032662  0.3874564484236989   T   T   T
  0.1708140000000000  0.3372420000000034  0.1940273100000027   F   F   F
  0.6726469999999978  0.3359809999999968  0.1945244099999996   F   F   F
  0.2471393151022589  0.7549743462355056  0.2909072600875101   T   T   T
  0.4990895430502456  0.7509739598596568  0.2913577173780557   T   T   T
  0.3320849999999993  0.6626210000000015  0.0993602200000012   F   F   F
  0.3325868240922183  0.6636070412773576  0.3903288810216587   T   T   T
  0.1647060000000025  0.5862709999999964  0.1958487400000024   F   F   F
  0.5857939999999999  0.6682610000000011  0.0968404799999973   F   F   F
  0.5877235860211155  0.6719461168018571  0.3890242256108520   T   T   T
  0.8308809999999980  0.6587749999999986  0.0965898999999979   F   F   F
  0.8344994039040059  0.6610694633837568  0.3847865789131983   T   T   T
  0.6676250000000010  0.5842620000000025  0.1937215600000002   F   F   F
  0.0823549999999997  0.9142709999999994  0.0946494200000032   F   F   F
  0.0849350399705170  0.9156123727334005  0.3840671881711533   T   T   T
  0.3339440000000025  0.9158430000000024  0.0982501700000000   F   F   F
  0.3398051711871299  0.9204524792561123  0.3857639193909657   T   T   T
  0.5823159999999987  0.9186520000000016  0.0990234000000001   F   F   F
  0.5815126257148999  0.9180019410807805  0.3913310853923733   T   T   T
  0.8341939999999965  0.9144939999999977  0.0965056900000008   F   F   F
  0.8381347724723011  0.9151158794022074  0.3873646158851826   T   T   T
  0.6684139999999985  0.8335110000000014  0.1951178999999996   F   F   F
 
  0.00000000E+00  0.00000000E+00  0.00000000E+00
  0.00000000E+00  0.00000000E+00  0.00000000E+00
  0.00000000E+00  0.00000000E+00  0.00000000E+00
  0.00000000E+00  0.00000000E+00  0.00000000E+00
  0.00000000E+00  0.00000000E+00  0.00000000E+00
  0.00000000E+00  0.00000000E+00  0.00000000E+00
  0.00000000E+00  0.00000000E+00  0.00000000E+00
  0.00000000E+00  0.00000000E+00  0.00000000E+00
  0.00000000E+00  0.00000000E+00  0.00000000E+00
  0.00000000E+00  0.00000000E+00  0.00000000E+00
  0.00000000E+00  0.00000000E+00  0.00000000E+00
  0.00000000E+00  0.00000000E+00  0.00000000E+00
  0.00000000E+00  0.00000000E+00  0.00000000E+00
  0.00000000E+00  0.00000000E+00  0.00000000E+00
  0.00000000E+00  0.00000000E+00  0.00000000E+00
  0.00000000E+00  0.00000000E+00  0.00000000E+00
  0.00000000E+00  0.00000000E+00  0.00000000E+00
  0.00000000E+00  0.00000000E+00  0.00000000E+00
  0.00000000E+00  0.00000000E+00  0.00000000E+00
  0.00000000E+00  0.00000000E+00  0.00000000E+00
  0.00000000E+00  0.00000000E+00  0.00000000E+00
  0.00000000E+00  0.00000000E+00  0.00000000E+00
  0.00000000E+00  0.00000000E+00  0.00000000E+00
  0.00000000E+00  0.00000000E+00  0.00000000E+00
  0.00000000E+00  0.00000000E+00  0.00000000E+00
  0.00000000E+00  0.00000000E+00  0.00000000E+00
  0.00000000E+00  0.00000000E+00  0.00000000E+00
  0.00000000E+00  0.00000000E+00  0.00000000E+00
  0.00000000E+00  0.00000000E+00  0.00000000E+00
  0.00000000E+00  0.00000000E+00  0.00000000E+00
  0.00000000E+00  0.00000000E+00  0.00000000E+00
  0.00000000E+00  0.00000000E+00  0.00000000E+00
  0.00000000E+00  0.00000000E+00  0.00000000E+00
  0.00000000E+00  0.00000000E+00  0.00000000E+00
  0.00000000E+00  0.00000000E+00  0.00000000E+00
  0.00000000E+00  0.00000000E+00  0.00000000E+00
  0.00000000E+00  0.00000000E+00  0.00000000E+00
  0.00000000E+00  0.00000000E+00  0.00000000E+00
  0.00000000E+00  0.00000000E+00  0.00000000E+00
  0.00000000E+00  0.00000000E+00  0.00000000E+00
  0.00000000E+00  0.00000000E+00  0.00000000E+00
  0.00000000E+00  0.00000000E+00  0.00000000E+00
  0.00000000E+00  0.00000000E+00  0.00000000E+00
  0.00000000E+00  0.00000000E+00  0.00000000E+00
  0.00000000E+00  0.00000000E+00  0.00000000E+00
  0.00000000E+00  0.00000000E+00  0.00000000E+00
  0.00000000E+00  0.00000000E+00  0.00000000E+00
  0.00000000E+00  0.00000000E+00  0.00000000E+00
  0.00000000E+00  0.00000000E+00  0.00000000E+00
  0.00000000E+00  0.00000000E+00  0.00000000E+00
  0.00000000E+00  0.00000000E+00  0.00000000E+00
  0.00000000E+00  0.00000000E+00  0.00000000E+00
  0.00000000E+00  0.00000000E+00  0.00000000E+00
  0.00000000E+00  0.00000000E+00  0.00000000E+00
  0.00000000E+00  0.00000000E+00  0.00000000E+00
  0.00000000E+00  0.00000000E+00  0.00000000E+00
  0.00000000E+00  0.00000000E+00  0.00000000E+00
  0.00000000E+00  0.00000000E+00  0.00000000E+00
  0.00000000E+00  0.00000000E+00  0.00000000E+00
  0.00000000E+00  0.00000000E+00  0.00000000E+00
  0.00000000E+00  0.00000000E+00  0.00000000E+00
  0.00000000E+00  0.00000000E+00  0.00000000E+00
  0.00000000E+00  0.00000000E+00  0.00000000E+00
  0.00000000E+00  0.00000000E+00  0.00000000E+00
