POSCAR                                  
   3.57100000000000     
     2.0000000000000000    1.0000000000000000    1.0000000000000000
    -2.0000000000000000    1.0000000000000000    1.0000000000000000
     0.0000000000000000   -0.5000000000000000    0.5000000000000000
   Ni   Fe
     8     8
Direct
  0.0010596848139457  0.7500476790365482  0.4999998302351827
  0.2490096762219309  0.5015692858281824  0.5000002489606175
  0.5028685063160339  0.7514849910918855  0.5000000887085179
  0.9966628072016022  0.9989224514955026  0.0000000037546357
  0.7533004565198524  0.7489633749839442  0.9999997192027976
  0.7453995233066024  0.4972557919916483  0.4999998004710520
  0.4965704376671098  0.9995867381080714  0.9999999889772866
  0.7541391857353474  0.2505479406607165  0.0000001189456356
  0.9965092073054933  0.4998555186782241  0.9999999798010180
  0.2562323867663565  0.7504557378696148  0.9999998911487182
  0.0017693995155170  0.2477772052074911  0.5000000994812481
  0.2522166244740518  0.2538224100973778  0.0000001844874618
  0.5006659151148156  0.5076343664073164  0.0000000724438394
  0.2433589844101363  0.9985003228703491  0.4999999757307947
  0.5060516551991654  0.2463776291292916  0.5000000356455487
  0.7441855494320322  0.9971985565438075  0.4999999620056528
 
  0.00000000E+00  0.00000000E+00  0.00000000E+00
  0.00000000E+00  0.00000000E+00  0.00000000E+00
  0.00000000E+00  0.00000000E+00  0.00000000E+00
  0.00000000E+00  0.00000000E+00  0.00000000E+00
  0.00000000E+00  0.00000000E+00  0.00000000E+00
  0.00000000E+00  0.00000000E+00  0.00000000E+00
  0.00000000E+00  0.00000000E+00  0.00000000E+00
  0.00000000E+00  0.00000000E+00  0.00000000E+00
  0.00000000E+00  0.00000000E+00  0.00000000E+00
  0.00000000E+00  0.00000000E+00  0.00000000E+00
  0.00000000E+00  0.00000000E+00  0.00000000E+00
  0.00000000E+00  0.00000000E+00  0.00000000E+00
  0.00000000E+00  0.00000000E+00  0.00000000E+00
  0.00000000E+00  0.00000000E+00  0.00000000E+00
  0.00000000E+00  0.00000000E+00  0.00000000E+00
  0.00000000E+00  0.00000000E+00  0.00000000E+00
