POSCAR                                  
   3.57100000000000     
     2.0000000000000000    1.0000000000000000    1.0000000000000000
    -2.0000000000000000    1.0000000000000000    1.0000000000000000
     0.0000000000000000   -0.5000000000000000    0.5000000000000000
   Ni   Fe
     8     8
Direct
  0.0004480423910991  0.7526669838356099  0.5000001380783630
  0.2495829491263351  0.7473297014612825  0.9999999093029857
  0.9996039795632896  0.2504102633534657  0.4999997723604324
  0.2521833492935102  0.4982086592238346  0.5000000550052732
  0.9978080114817018  0.0017812420456096  0.9999998645655950
  0.2503934093689466  0.2495839657993102  0.0000001871810440
  0.7523679857897676  0.5001433410770488  0.4999998841020883
  0.4976134299813779  0.9998713354681712  0.0000001287099067
  0.0039041924515075  0.5053688624738299  0.9999999367546835
  0.4946880693111737  0.7520448203070131  0.5000000699907474
  0.4990579549373919  0.4970315495557074  0.0000001340945346
  0.7553446770939303  0.7479549770646656  0.9999999435816846
  0.2460846171975177  0.9946180545492282  0.5000000826022486
  0.4990420737042811  0.2476783634819810  0.5000000523926786
  0.7509471011589142  0.2523384207482593  0.9999999462358815
  0.7509301571492628  0.0029694595549827  0.4999998950418671
 
  0.00000000E+00  0.00000000E+00  0.00000000E+00
  0.00000000E+00  0.00000000E+00  0.00000000E+00
  0.00000000E+00  0.00000000E+00  0.00000000E+00
  0.00000000E+00  0.00000000E+00  0.00000000E+00
  0.00000000E+00  0.00000000E+00  0.00000000E+00
  0.00000000E+00  0.00000000E+00  0.00000000E+00
  0.00000000E+00  0.00000000E+00  0.00000000E+00
  0.00000000E+00  0.00000000E+00  0.00000000E+00
  0.00000000E+00  0.00000000E+00  0.00000000E+00
  0.00000000E+00  0.00000000E+00  0.00000000E+00
  0.00000000E+00  0.00000000E+00  0.00000000E+00
  0.00000000E+00  0.00000000E+00  0.00000000E+00
  0.00000000E+00  0.00000000E+00  0.00000000E+00
  0.00000000E+00  0.00000000E+00  0.00000000E+00
  0.00000000E+00  0.00000000E+00  0.00000000E+00
  0.00000000E+00  0.00000000E+00  0.00000000E+00
