POSCAR                                  
   3.57100000000000     
     2.0000000000000000    1.0000000000000000    1.0000000000000000
    -2.0000000000000000    1.0000000000000000    1.0000000000000000
     0.0000000000000000   -0.5000000000000000    0.5000000000000000
   Ni   Fe
     8     8
Direct
  0.0004480423911022  0.7526669838356123  0.5000001380783599
  0.2495829491263333  0.7473297014612817 -0.0000000906970174
  0.9996039795632876  0.2504102633534635  0.4999997723604327
  0.2521833492935119  0.4982086592238313  0.5000000550052751
 -0.0021919885182997  0.0017812420456107 -0.0000001354344037
  0.2503934093689439  0.2495839657993089  0.0000001871810415
  0.7523679857897678  0.5001433410770484  0.4999998841020855
  0.4976134299813808 -0.0001286645318283  0.0000001287099074
  0.0039041924515043  0.5053688624738311  0.9999999367546807
  0.4946880693111771  0.7520448203070125  0.5000000699907439
  0.4990579549373901  0.4970315495557068  0.0000001340945332
  0.7553446770939295  0.7479549770646635  0.9999999435816822
  0.2460846171975195 -0.0053819454507683  0.5000000826022512
  0.4990420737042799  0.2476783634819842  0.5000000523926769
  0.7509471011589157  0.2523384207482599 -0.0000000537641151
  0.7509301571492633  0.0029694595549822  0.4999998950418661
 
  0.00000000E+00  0.00000000E+00  0.00000000E+00
  0.00000000E+00  0.00000000E+00  0.00000000E+00
  0.00000000E+00  0.00000000E+00  0.00000000E+00
  0.00000000E+00  0.00000000E+00  0.00000000E+00
  0.00000000E+00  0.00000000E+00  0.00000000E+00
  0.00000000E+00  0.00000000E+00  0.00000000E+00
  0.00000000E+00  0.00000000E+00  0.00000000E+00
  0.00000000E+00  0.00000000E+00  0.00000000E+00
  0.00000000E+00  0.00000000E+00  0.00000000E+00
  0.00000000E+00  0.00000000E+00  0.00000000E+00
  0.00000000E+00  0.00000000E+00  0.00000000E+00
  0.00000000E+00  0.00000000E+00  0.00000000E+00
  0.00000000E+00  0.00000000E+00  0.00000000E+00
  0.00000000E+00  0.00000000E+00  0.00000000E+00
  0.00000000E+00  0.00000000E+00  0.00000000E+00
  0.00000000E+00  0.00000000E+00  0.00000000E+00
