POSCAR
1.0
    10.02677000     0.00000000     0.00000000
    -5.01338500     8.68343754     0.00000000
     0.00000000     0.00000000    21.18918000
  Ni  Fe  O
  49  15  4
Selective
Direct
     0.00072800     0.00110100     0.28770100   T T T
     0.25088700     0.00172900     0.28686500   T T T
     0.49957100     0.99943000     0.28869300   T T T
     0.74881900     0.99936900     0.28847200   T T T
     0.00000200     0.24964400     0.28858600   T T T
     0.25146800     0.25248500     0.28909500   T T T
     0.08288200     0.16633200     0.09567600   F F F
     0.08181400     0.16565800     0.38326000   T T T
     0.50045100     0.25078900     0.28829100   T T T
     0.33293900     0.16685800     0.09574200   F F F
     0.33338400     0.16601700     0.38246600   T T T
     0.75054100     0.25158500     0.29021900   T T T
     0.58230700     0.16720100     0.09670300   F F F
     0.58066600     0.16433600     0.38372100   T T T
     0.83403200     0.16672400     0.09645100   F F F
     0.83491600     0.16524200     0.38334200   T T T
     0.66558100     0.08305500     0.19258300   F F F
     0.91639700     0.08203100     0.19204900   F F F
     0.00119700     0.50071700     0.28685800   T T T
     0.08092200     0.41609700     0.09594800   F F F
     0.08320700     0.41485200     0.38304100   T T T
     0.16611800     0.33395200     0.19207500   F F F
     0.75171700     0.50175800     0.28778700   T T T
     0.58357300     0.41617200     0.09593300   F F F
     0.58221600     0.41459100     0.38432900   T T T
     0.00125500     0.75154400     0.28831400   T T T
     0.24933600     0.74916000     0.28712000   T T T
     0.08375800     0.66810400     0.09479700   F F F
     0.08314200     0.66642500     0.38191500   T T T
     0.50011000     0.74961000     0.28837000   T T T
     0.33297400     0.66727700     0.09438800   F F F
     0.33111000     0.66661700     0.38222000   T T T
     0.75078100     0.75024800     0.28763900   T T T
     0.58298100     0.66668200     0.09450900   F F F
     0.58569300     0.66704500     0.38321300   T T T
     0.41661000     0.58200200     0.19081700   F F F
     0.83395900     0.66770600     0.09497900   F F F
     0.83360500     0.66684000     0.38243000   T T T
     0.91708300     0.58323900     0.19079400   F F F
     0.08291700     0.91685800     0.09518600   F F F
     0.08288300     0.91713900     0.38219300   T T T
     0.33420600     0.91705400     0.09538200   F F F
     0.33256200     0.91584500     0.38243700   T T T
     0.16670900     0.83524200     0.19136500   F F F
     0.41703500     0.83214900     0.19205900   F F F
     0.83233100     0.91715000     0.09633700   F F F
     0.83316700     0.91645400     0.38322000   T T T
     0.66623900     0.83337000     0.19234100   F F F
     0.91705900     0.83319500     0.19216200   F F F
     0.16168500     0.08211500     0.19130600   F F F
     0.41607500     0.07807100     0.19177300   F F F
     0.24963800     0.49980300     0.28871500   T T T
     0.50520400     0.50268700     0.29087700   T T T
     0.33134100     0.41714300     0.09577600   F F F
     0.33316700     0.41663200     0.38691600   T T T
     0.41638400     0.33144300     0.19252200   F F F
     0.83354800     0.41839000     0.09448800   F F F
     0.83340100     0.41599000     0.38391800   T T T
     0.66732400     0.33240600     0.19435500   F F F
     0.91446400     0.32695500     0.19396500   F F F
     0.16914200     0.58833400     0.18947800   F F F
     0.66961600     0.58928900     0.18986000   F F F
     0.58310400     0.91651500     0.09583500   F F F
     0.58399400     0.91624200     0.38334800   T T T
     0.66869941     0.33357029     0.44032825   T T T
     0.16757895    -0.16513398     0.44032825   T T T
     0.16577659     0.33228630     0.44032825   T T T
     0.66755572    -0.16608589     0.44032825   T T T
