POSCAR                                  
   1.00000000000000     
    10.1003100000000003    0.0000000000000000    0.0000000000000000
    -5.0501550000000002    8.7471250499999993    0.0000000000000000
     0.0000000000000000    0.0000000000000000   21.2537989799999991
   Ni   Fe
    33    31
Selective dynamics
Direct
  0.9990430000000003  0.0006419999999991  0.1905230300000014   F   F   F
  0.2484910000000013  0.9986279999999965  0.1920546300000012   F   F   F
  0.4990250000000032  0.0019270000000020  0.1918055300000034   F   F   F
  0.9981390000000019  0.2506739999999965  0.1919423000000009   F   F   F
  0.2492149999999995  0.2488620000000026  0.1911859599999985   F   F   F
  0.3346138647902848  0.1648746941066648  0.2879295679170895   T   T   T
  0.7489350000000030  0.2527809999999988  0.1931747499999972   F   F   F
  0.4183749999999975  0.0839399999999983  0.0941179900000009   F   F   F
  0.4175403153333832  0.0833107304378231  0.3828748494509142   T   T   T
  0.8338220159203971  0.1666834624015721  0.2903493013067830   T   T   T
  0.6679699999999968  0.0847229999999968  0.0956932499999965   F   F   F
  0.6670757840342034  0.0844534811233544  0.3845169941391831   T   T   T
  0.9990859999999984  0.4991079999999997  0.1930400099999972   F   F   F
  0.7481689999999972  0.4987110000000001  0.1920458999999965   F   F   F
  0.5853550588760399  0.4139801050115963  0.2889341192035459   T   T   T
  0.4196099999999987  0.3333709999999996  0.0941398200000023   F   F   F
  0.4174933386636965  0.3321649528574540  0.3821681051389092   T   T   T
  0.8301492229658862  0.4138869174713662  0.2902496539841479   T   T   T
  0.9185590000000019  0.3350160000000031  0.0956874299999981   F   F   F
  0.9187948202585829  0.3356278935017372  0.3836398573194586   T   T   T
  0.9976580000000013  0.7489690000000024  0.1925604199999995   F   F   F
  0.0809065696816873  0.6638910572272394  0.2893423026792519   T   T   T
  0.7534649999999985  0.7517280000000000  0.1916285900000005   F   F   F
  0.4173729999999978  0.5835239999999970  0.0962342500000020   F   F   F
  0.4146345797034030  0.5813218991348919  0.3858361500536986   T   T   T
  0.9155080000000027  0.5846190000000036  0.0954287200000010   F   F   F
  0.9121054646118552  0.5847645352365163  0.3836134062756926   T   T   T
  0.1668289999999999  0.8349079999999987  0.0945667399999977   F   F   F
  0.1642492261851416  0.8364732404930777  0.3833336847027908   T   T   T
  0.4171529999999990  0.8333879999999994  0.0967927000000017   F   F   F
  0.4145186893412784  0.8357282466108131  0.3858241337016608   T   T   T
  0.9198510000000013  0.8326369999999983  0.0953984499999976   F   F   F
  0.9165174082869783  0.8329147924821214  0.3836675862466450   T   T   T
  0.7491819999999976  0.0045379999999966  0.1931130500000009   F   F   F
  0.0849642598625877  0.1687396350921233  0.2860600414145225   T   T   T
  0.4931899999999985  0.2454400000000021  0.1916780600000010   F   F   F
  0.1713960000000014  0.0833930000000009  0.0953588799999991   F   F   F
  0.1688040709180783  0.0847760427013071  0.3835726954439664   T   T   T
  0.5877137602165519  0.1693899187900172  0.2891587936757816   T   T   T
  0.9169309999999982  0.0858149999999966  0.0941008200000013   F   F   F
  0.9161817797344938  0.0861554853813118  0.3845811650939126   T   T   T
  0.2459640000000007  0.4966930000000005  0.1936994400000032   F   F   F
  0.0766356443053198  0.4161497991033727  0.2901783478530717   T   T   T
  0.5029729999999972  0.4996209999999977  0.1909633300000024   F   F   F
  0.3399961567176959  0.4154450742372617  0.2891830373665982   T   T   T
  0.1708140000000000  0.3372420000000034  0.0955052600000030   F   F   F
  0.1686043087985425  0.3341892761592931  0.3868663083113617   T   T   T
  0.6726469999999978  0.3359809999999968  0.0960034699999994   F   F   F
  0.6699288386045197  0.3352032091952140  0.3872089188171017   T   T   T
  0.2449050000000028  0.7526999999999973  0.1934363700000006   F   F   F
  0.4984030000000033  0.7498829999999970  0.1926069800000008   F   F   F
  0.3326463938050495  0.6633055912383341  0.2925416221703898   T   T   T
  0.1647060000000025  0.5862709999999964  0.0973307900000009   F   F   F
  0.1646455256821682  0.5890064534807777  0.3872308658106931   T   T   T
  0.5877102491192545  0.6680298139948277  0.2906498345086703   T   T   T
  0.8304987874413357  0.6580874713131593  0.2886087992830682   T   T   T
  0.6676250000000010  0.5842620000000025  0.0951988200000002   F   F   F
  0.6638478447870426  0.5848030851053707  0.3878336954355888   T   T   T
  0.0821446205489664  0.9133475073380950  0.2866353820415171   T   T   T
  0.3324264702131003  0.9147437402820131  0.2908294933898077   T   T   T
  0.5825968836576720  0.9185615311720809  0.2911207383196341   T   T   T
  0.8338057435451347  0.9155851320371227  0.2894423378311330   T   T   T
  0.6684139999999985  0.8335110000000014  0.0965983099999974   F   F   F
  0.6610560841917987  0.8321398251308736  0.3881701954973522   T   T   T
 
  0.00000000E+00  0.00000000E+00  0.00000000E+00
  0.00000000E+00  0.00000000E+00  0.00000000E+00
  0.00000000E+00  0.00000000E+00  0.00000000E+00
  0.00000000E+00  0.00000000E+00  0.00000000E+00
  0.00000000E+00  0.00000000E+00  0.00000000E+00
  0.00000000E+00  0.00000000E+00  0.00000000E+00
  0.00000000E+00  0.00000000E+00  0.00000000E+00
  0.00000000E+00  0.00000000E+00  0.00000000E+00
  0.00000000E+00  0.00000000E+00  0.00000000E+00
  0.00000000E+00  0.00000000E+00  0.00000000E+00
  0.00000000E+00  0.00000000E+00  0.00000000E+00
  0.00000000E+00  0.00000000E+00  0.00000000E+00
  0.00000000E+00  0.00000000E+00  0.00000000E+00
  0.00000000E+00  0.00000000E+00  0.00000000E+00
  0.00000000E+00  0.00000000E+00  0.00000000E+00
  0.00000000E+00  0.00000000E+00  0.00000000E+00
  0.00000000E+00  0.00000000E+00  0.00000000E+00
  0.00000000E+00  0.00000000E+00  0.00000000E+00
  0.00000000E+00  0.00000000E+00  0.00000000E+00
  0.00000000E+00  0.00000000E+00  0.00000000E+00
  0.00000000E+00  0.00000000E+00  0.00000000E+00
  0.00000000E+00  0.00000000E+00  0.00000000E+00
  0.00000000E+00  0.00000000E+00  0.00000000E+00
  0.00000000E+00  0.00000000E+00  0.00000000E+00
  0.00000000E+00  0.00000000E+00  0.00000000E+00
  0.00000000E+00  0.00000000E+00  0.00000000E+00
  0.00000000E+00  0.00000000E+00  0.00000000E+00
  0.00000000E+00  0.00000000E+00  0.00000000E+00
  0.00000000E+00  0.00000000E+00  0.00000000E+00
  0.00000000E+00  0.00000000E+00  0.00000000E+00
  0.00000000E+00  0.00000000E+00  0.00000000E+00
  0.00000000E+00  0.00000000E+00  0.00000000E+00
  0.00000000E+00  0.00000000E+00  0.00000000E+00
  0.00000000E+00  0.00000000E+00  0.00000000E+00
  0.00000000E+00  0.00000000E+00  0.00000000E+00
  0.00000000E+00  0.00000000E+00  0.00000000E+00
  0.00000000E+00  0.00000000E+00  0.00000000E+00
  0.00000000E+00  0.00000000E+00  0.00000000E+00
  0.00000000E+00  0.00000000E+00  0.00000000E+00
  0.00000000E+00  0.00000000E+00  0.00000000E+00
  0.00000000E+00  0.00000000E+00  0.00000000E+00
  0.00000000E+00  0.00000000E+00  0.00000000E+00
  0.00000000E+00  0.00000000E+00  0.00000000E+00
  0.00000000E+00  0.00000000E+00  0.00000000E+00
  0.00000000E+00  0.00000000E+00  0.00000000E+00
  0.00000000E+00  0.00000000E+00  0.00000000E+00
  0.00000000E+00  0.00000000E+00  0.00000000E+00
  0.00000000E+00  0.00000000E+00  0.00000000E+00
  0.00000000E+00  0.00000000E+00  0.00000000E+00
  0.00000000E+00  0.00000000E+00  0.00000000E+00
  0.00000000E+00  0.00000000E+00  0.00000000E+00
  0.00000000E+00  0.00000000E+00  0.00000000E+00
  0.00000000E+00  0.00000000E+00  0.00000000E+00
  0.00000000E+00  0.00000000E+00  0.00000000E+00
  0.00000000E+00  0.00000000E+00  0.00000000E+00
  0.00000000E+00  0.00000000E+00  0.00000000E+00
  0.00000000E+00  0.00000000E+00  0.00000000E+00
  0.00000000E+00  0.00000000E+00  0.00000000E+00
  0.00000000E+00  0.00000000E+00  0.00000000E+00
  0.00000000E+00  0.00000000E+00  0.00000000E+00
  0.00000000E+00  0.00000000E+00  0.00000000E+00
  0.00000000E+00  0.00000000E+00  0.00000000E+00
  0.00000000E+00  0.00000000E+00  0.00000000E+00
  0.00000000E+00  0.00000000E+00  0.00000000E+00
