POSCAR                                  
   1.00000000000000     
    10.1116299999999999    0.0000000000000000    0.0000000000000000
    -5.0558149999999999    8.7569284500000002    0.0000000000000000
     0.0000000000000000    0.0000000000000000   21.3136181499999999
   Fe   Ni
    47    17
Selective dynamics
Direct
  0.0019470000000013  0.9992000000000019  0.1950471099999973   F   F   F
  0.4988060000000019  0.9964760000000012  0.1943646799999996   F   F   F
  0.7431600000000032  0.9964590000000015  0.1926537900000014   F   F   F
  0.2491360000000000  0.2532259999999980  0.1950282299999984   F   F   F
  0.0827244934789910  0.1677467417592735  0.2933996617110401   T   T   T
  0.3353143732552964  0.1673557747208700  0.2908862616781816   T   T   T
  0.1676629999999975  0.0809440000000023  0.0947608700000018   F   F   F
  0.1649343446974352  0.0823341308794683  0.3926574965981800   T   T   T
  0.5915217125674537  0.1698618172244588  0.2901965595330604   T   T   T
  0.4220779999999991  0.0874250000000032  0.0945996299999976   F   F   F
  0.4154081375843637  0.0864166306513702  0.3896382266342357   T   T   T
  0.8369502126418353  0.1663683190179466  0.2899430946313351   T   T   T
  0.6673759999999973  0.0832770000000025  0.0966591399999999   F   F   F
  0.6677836775088086  0.0887319753588697  0.3902318889622468   T   T   T
  0.0032080000000008  0.5109089999999981  0.1927363000000000   F   F   F
  0.2558689999999970  0.5057770000000019  0.1955630799999994   F   F   F
  0.4996020000000030  0.5030489999999972  0.1957571499999986   F   F   F
  0.3331695051863022  0.4194741961228282  0.2958914616401012   T   T   T
  0.7567909999999998  0.5080430000000007  0.1945282399999968   F   F   F
  0.5827831785427574  0.4160510275417343  0.2940307916242518   T   T   T
  0.4203279999999978  0.3267179999999996  0.0953032800000031   F   F   F
  0.4128916173990870  0.3340647288389367  0.3945879881280516   T   T   T
  0.8382131101367866  0.4200797155312767  0.2922446488123665   T   T   T
  0.6624929999999978  0.3354240000000033  0.0938367199999988   F   F   F
  0.6631360435036826  0.3320773242763445  0.3911987859239875   T   T   T
  0.9918059999999969  0.7470280000000002  0.1939332500000006   F   F   F
  0.2510460000000023  0.7456389999999971  0.1952536699999996   F   F   F
  0.0873116630624913  0.6669960718472112  0.2939587862575869   T   T   T
  0.5015369999999990  0.7490570000000005  0.1957449499999981   F   F   F
  0.3418989081292753  0.6711688629897768  0.2950242689186011   T   T   T
  0.1640700000000024  0.5890419999999992  0.0986219099999985   F   F   F
  0.1672694316564249  0.5760328801394101  0.3888812941295227   T   T   T
  0.7477749999999972  0.7486310000000032  0.1922688499999978   F   F   F
  0.5900725273441356  0.6705186696018093  0.2949586222570329   T   T   T
  0.8345911583129981  0.6700780060627182  0.2946769683231493   T   T   T
  0.6721440000000030  0.5852939999999975  0.0961759999999998   F   F   F
  0.6674248129668890  0.5851383961814861  0.3954538655959944   T   T   T
  0.9190749999999994  0.5873309999999989  0.0979173899999992   F   F   F
  0.9184129005907995  0.5841204690591558  0.3939672710852243   T   T   T
  0.0864465251147445  0.9188058657416559  0.2921603379440902   T   T   T
  0.3402539830803197  0.9171991969238237  0.2920077520178290   T   T   T
  0.1627429999999990  0.8315359999999998  0.0945450099999974   F   F   F
  0.1616673375101833  0.8296193488548969  0.3916968550601399   T   T   T
  0.6687829999999977  0.8308299999999988  0.0995390900000004   F   F   F
  0.6618446034878225  0.8368211095819423  0.3888637761140180   T   T   T
  0.9185230000000004  0.8270600000000030  0.0980696299999977   F   F   F
  0.9138283785980563  0.8364797584912883  0.3898971755153252   T   T   T
  0.2491649999999979  0.9981310000000008  0.1938187800000009   F   F   F
  0.0012970000000010  0.2497419999999977  0.1948042400000034   F   F   F
  0.4993309999999980  0.2516269999999992  0.1935936300000023   F   F   F
  0.7494420000000019  0.2507129999999975  0.1939509700000031   F   F   F
  0.9142409999999970  0.0792939999999973  0.0968584399999983   F   F   F
  0.9142931153765890  0.0855279464561595  0.3873213059792521   T   T   T
  0.0840915889942122  0.4173636254936827  0.2899342099549422   T   T   T
  0.1707729999999970  0.3343709999999973  0.0969322300000002   F   F   F
  0.1638064660578043  0.3294807817281413  0.3873489713967688   T   T   T
  0.9156699999999987  0.3364639999999994  0.0964531600000029   F   F   F
  0.9165289452843515  0.3341646418090417  0.3853145905015863   T   T   T
  0.4192359999999979  0.5847150000000028  0.0972468699999993   F   F   F
  0.4162874365378872  0.5828861830651866  0.3908714755127877   T   T   T
  0.5887057006554118  0.9208824691032109  0.2938658545836603   T   T   T
  0.4146700000000010  0.8342889999999983  0.0974859700000010   F   F   F
  0.4146746148629753  0.8334827754215849  0.3880503126065905   T   T   T
  0.8332757439557775  0.9198144354907389  0.2917063597817368   T   T   T
 
  0.00000000E+00  0.00000000E+00  0.00000000E+00
  0.00000000E+00  0.00000000E+00  0.00000000E+00
  0.00000000E+00  0.00000000E+00  0.00000000E+00
  0.00000000E+00  0.00000000E+00  0.00000000E+00
  0.00000000E+00  0.00000000E+00  0.00000000E+00
  0.00000000E+00  0.00000000E+00  0.00000000E+00
  0.00000000E+00  0.00000000E+00  0.00000000E+00
  0.00000000E+00  0.00000000E+00  0.00000000E+00
  0.00000000E+00  0.00000000E+00  0.00000000E+00
  0.00000000E+00  0.00000000E+00  0.00000000E+00
  0.00000000E+00  0.00000000E+00  0.00000000E+00
  0.00000000E+00  0.00000000E+00  0.00000000E+00
  0.00000000E+00  0.00000000E+00  0.00000000E+00
  0.00000000E+00  0.00000000E+00  0.00000000E+00
  0.00000000E+00  0.00000000E+00  0.00000000E+00
  0.00000000E+00  0.00000000E+00  0.00000000E+00
  0.00000000E+00  0.00000000E+00  0.00000000E+00
  0.00000000E+00  0.00000000E+00  0.00000000E+00
  0.00000000E+00  0.00000000E+00  0.00000000E+00
  0.00000000E+00  0.00000000E+00  0.00000000E+00
  0.00000000E+00  0.00000000E+00  0.00000000E+00
  0.00000000E+00  0.00000000E+00  0.00000000E+00
  0.00000000E+00  0.00000000E+00  0.00000000E+00
  0.00000000E+00  0.00000000E+00  0.00000000E+00
  0.00000000E+00  0.00000000E+00  0.00000000E+00
  0.00000000E+00  0.00000000E+00  0.00000000E+00
  0.00000000E+00  0.00000000E+00  0.00000000E+00
  0.00000000E+00  0.00000000E+00  0.00000000E+00
  0.00000000E+00  0.00000000E+00  0.00000000E+00
  0.00000000E+00  0.00000000E+00  0.00000000E+00
  0.00000000E+00  0.00000000E+00  0.00000000E+00
  0.00000000E+00  0.00000000E+00  0.00000000E+00
  0.00000000E+00  0.00000000E+00  0.00000000E+00
  0.00000000E+00  0.00000000E+00  0.00000000E+00
  0.00000000E+00  0.00000000E+00  0.00000000E+00
  0.00000000E+00  0.00000000E+00  0.00000000E+00
  0.00000000E+00  0.00000000E+00  0.00000000E+00
  0.00000000E+00  0.00000000E+00  0.00000000E+00
  0.00000000E+00  0.00000000E+00  0.00000000E+00
  0.00000000E+00  0.00000000E+00  0.00000000E+00
  0.00000000E+00  0.00000000E+00  0.00000000E+00
  0.00000000E+00  0.00000000E+00  0.00000000E+00
  0.00000000E+00  0.00000000E+00  0.00000000E+00
  0.00000000E+00  0.00000000E+00  0.00000000E+00
  0.00000000E+00  0.00000000E+00  0.00000000E+00
  0.00000000E+00  0.00000000E+00  0.00000000E+00
  0.00000000E+00  0.00000000E+00  0.00000000E+00
  0.00000000E+00  0.00000000E+00  0.00000000E+00
  0.00000000E+00  0.00000000E+00  0.00000000E+00
  0.00000000E+00  0.00000000E+00  0.00000000E+00
  0.00000000E+00  0.00000000E+00  0.00000000E+00
  0.00000000E+00  0.00000000E+00  0.00000000E+00
  0.00000000E+00  0.00000000E+00  0.00000000E+00
  0.00000000E+00  0.00000000E+00  0.00000000E+00
  0.00000000E+00  0.00000000E+00  0.00000000E+00
  0.00000000E+00  0.00000000E+00  0.00000000E+00
  0.00000000E+00  0.00000000E+00  0.00000000E+00
  0.00000000E+00  0.00000000E+00  0.00000000E+00
  0.00000000E+00  0.00000000E+00  0.00000000E+00
  0.00000000E+00  0.00000000E+00  0.00000000E+00
  0.00000000E+00  0.00000000E+00  0.00000000E+00
  0.00000000E+00  0.00000000E+00  0.00000000E+00
  0.00000000E+00  0.00000000E+00  0.00000000E+00
  0.00000000E+00  0.00000000E+00  0.00000000E+00
