POSCAR                                  
   3.54500000000000     
     0.5000000000000000   -2.0000000000000000   -0.5000000000000000
    -3.0000000000000000   -1.5000000000000000   -0.5000000000000000
     0.0000000000000000    0.0000000000000000   -4.0000000000000000
   Ni   Fe
    81    27
Direct
  0.7778415815357818  0.9643112363601460  0.1574903649786208
  0.5574568066951500  0.9281438572946499  0.0634672707586219
  0.8873679049801666  0.8160663080561932  0.0365014711017366
  0.7777099344085485  0.9627306592370104  0.4082366051065165
  0.5542922094424299  0.9257806751333106  0.3148621770206930
  0.8892303174176632  0.8151481479005724  0.2865054944015384
  0.6656248783299858  0.7784346974030214  0.1947506880790186
  0.4458869620025894  0.7418431058711050  0.0995469589264673
  0.2226492338493600  0.7030718021283278  0.0083174891457531
  0.7771088067726453  0.9611181673630114  0.6579090596471389
  0.3304921781081518  0.8890013550292153  0.4732171573083974
  0.1083360698069242  0.8542187144753157  0.3788677606715751
  0.6665177816761840  0.7778965182929412  0.4448443625152478
  0.2251742146810685  0.7053501919942917  0.2580960017834357
  0.0006570840613023  0.6657407095157524  0.1663815771292647
  0.1107196325750550  0.5179249232491259  0.0456660552749710
  0.8903018993433847  0.4802525117764986  0.2035154927792036
  0.7801474145499512  0.9636663212386267  0.9061527578156685
  0.5563987270233781  0.9257664776220267  0.8146714049226560
  0.1104757021843028  0.8511147098361462  0.6300998453596378
  0.8893904463203413  0.8158668441115324  0.7878482047831952
  0.6644684029049657  0.7765045987412975  0.6956647687406203
  0.7808769182607165  0.6284796785459079  0.5732185210855647
  0.5544985770948117  0.5942255460350339  0.4807170250316304
  0.3340345746493156  0.5551269978856155  0.3896422052125246
  0.1142787436380814  0.5172182441699107  0.2960774551283976
  0.6687399723764216  0.4424980851469797  0.3598630682143948
  0.2252793401770816  0.3703426736469453  0.1751547991865081
  0.0039736349868207  0.3317789488618956  0.0820745424726184
  0.7788192319035261  0.2960064356175707  0.2408013516180461
  0.5568327797573929  0.2607318371123739  0.1486231451387283
  0.3388191839690222  0.2213402723106839  0.0546256316401212
  0.8871866226865066  0.1490676735553080  0.1207263912449861
  0.6675658570291603  0.1107600962086863  0.0260019123718891
  0.3318921134262141  0.8878359773852083  0.9713652184589350
  0.6654508622696724  0.7791780855976143  0.9433824081046467
  0.4420492268287646  0.7413447879363488  0.8520750616449746
  0.2244626766910969  0.7053817682271486  0.7584631704806739
  0.9997912159511344  0.6661742590076969  0.6679843204171334
  0.7784563507066551  0.6301825360597562  0.8251023666096060
  0.5561242169403684  0.5919363593123990  0.7332722871677433
  0.3330077449591826  0.5553488430896749  0.6393309764350263
  0.8884446526580945  0.4822774463736152  0.7039619972014606
  0.6649643902479099  0.4444168601420202  0.6119489454972609
  0.4458505288251544  0.4073234564784656  0.5174708399823942
  0.2195774045840153  0.3696705219450820  0.4276125054617168
  0.0006886287822496  0.3322902419285825  0.3336758027217073
  0.7801016980309754  0.2956539006659114  0.4906274130831889
  0.5564605915866707  0.2580748490477589  0.3979246822517553
  0.3316655175115741  0.2214619091715235  0.3047601861810350
  0.8899448286913909  0.1466239629108017  0.3707512588154600
  0.6660242345131167  0.1114709325113594  0.2782100043033253
  0.4426146495980419  0.0746725046098291  0.1849743494475575
  0.2228846839399736  0.0358400910569827  0.0919325155536725
  0.9982970912551465  0.0020713635091099  0.9996793497618839
  0.0001617070234730  0.6659663245964751  0.9158218919727474
  0.5562035156948113  0.5916366928148804  0.9820068124847765
  0.3321134810400892  0.5557866077059188  0.8880791394706051
  0.1118137079595911  0.5178491033206782  0.7970974293618980
  0.8862660953006838  0.4817877381824047  0.9536855212904314
  0.6643685855749908  0.4438674348688281  0.8631328377689798
  0.4440047662401057  0.4069592926338927  0.7701191459675059
  0.2241257617408579  0.3685581946568703  0.6756424525246416
  0.7758016689557579  0.2971845001624658  0.7429379675975483
  0.5550654534381039  0.2609999281375437  0.6476833262704034
  0.1104771026405018  0.1849927965086877  0.4628926789500483
  0.8850485880683365  0.1486493334006198  0.6217620898296445
  0.6666605041337021  0.1108315267658782  0.5296733274116434
  0.4453031041377145  0.0756938145797434  0.4343639524184297
  0.0027615246459121  0.0007444081758905  0.2489639694233219
  0.2206678229570684  0.3706375272090838  0.9257822189178881
  0.7777457434615016  0.2951938766759881  0.9902659027205729
  0.3308737486425386  0.2227873037624946  0.8068298940921466
  0.1097132804163721  0.1843675776996605  0.7125964479886164
  0.8913627243750284  0.1484872510032815  0.8691511821686149
  0.6657182167201512  0.1113647502369446  0.7778234211547286
  0.4451867536974419  0.0753462302392620  0.6866834159745423
  0.2217945496268356  0.0378571397452703  0.5926015004091951
  0.4431711370542288  0.0737383647571122  0.9348499682227853
  0.2250338422812064  0.0363564462365673  0.8429317124142486
  0.0016521718797549  0.0001282586236542  0.7499857521993860
  0.3381626628501309  0.8895866988903194  0.2183798488954594
  0.1053121518643749  0.8510701685723987  0.1271827312869576
  0.7816956503084782  0.6335225310002812  0.0719403705249277
  0.5517304329161945  0.9317614124009026  0.5637230458158342
  0.8823879889536812  0.8125861752440784  0.5400104063838356
  0.4405801336765478  0.7431014707994947  0.3536256600447345
  0.7796159515818317  0.6291214077527414  0.3208972199655662
  0.5546630878638439  0.5932329080479164  0.2313673572362944
  0.3297668940667435  0.5594662599135631  0.1379172222582810
  0.6752002808106639  0.4414234045440750  0.1106731262381970
  0.4422866563749182  0.4077043879321778  0.0182554050457426
  0.3335958587463352  0.8911174946323541  0.7226274097755905
  0.4494636058027695  0.7374109218557194  0.6021194056685459
  0.2161995964947465  0.7048013111845748  0.5123221406711949
  0.0039992249592942  0.6666784295888561  0.4128502535403982
  0.8870693825210196  0.4797359010103293  0.4542237269270046
  0.4424463103655043  0.4039637964579299  0.2708069942367928
  0.1069725031936883  0.8529643288830968  0.8816162841637976
  0.1138242880517453  0.5154714409453689  0.5489025410518451
  0.1112364380389081  0.1856244311176880  0.2098166398564558
  0.9937904430647464  0.3310822819573076  0.5877913686793548
  0.3377357753745187  0.2208907952446424  0.5554665815175213
  0.2256892259733831  0.0369778711947220  0.3438048761158470
  0.9976870742366373  0.3344395088259517  0.8304577501099288
  0.5567878584650856  0.2567135786134429  0.8968801277875897
  0.9969883121598357  0.0008479582712440  0.5034364903367106
  0.1141097203820323  0.1841710237248293  0.9648963806836903
 
  0.00000000E+00  0.00000000E+00  0.00000000E+00
  0.00000000E+00  0.00000000E+00  0.00000000E+00
  0.00000000E+00  0.00000000E+00  0.00000000E+00
  0.00000000E+00  0.00000000E+00  0.00000000E+00
  0.00000000E+00  0.00000000E+00  0.00000000E+00
  0.00000000E+00  0.00000000E+00  0.00000000E+00
  0.00000000E+00  0.00000000E+00  0.00000000E+00
  0.00000000E+00  0.00000000E+00  0.00000000E+00
  0.00000000E+00  0.00000000E+00  0.00000000E+00
  0.00000000E+00  0.00000000E+00  0.00000000E+00
  0.00000000E+00  0.00000000E+00  0.00000000E+00
  0.00000000E+00  0.00000000E+00  0.00000000E+00
  0.00000000E+00  0.00000000E+00  0.00000000E+00
  0.00000000E+00  0.00000000E+00  0.00000000E+00
  0.00000000E+00  0.00000000E+00  0.00000000E+00
  0.00000000E+00  0.00000000E+00  0.00000000E+00
  0.00000000E+00  0.00000000E+00  0.00000000E+00
  0.00000000E+00  0.00000000E+00  0.00000000E+00
  0.00000000E+00  0.00000000E+00  0.00000000E+00
  0.00000000E+00  0.00000000E+00  0.00000000E+00
  0.00000000E+00  0.00000000E+00  0.00000000E+00
  0.00000000E+00  0.00000000E+00  0.00000000E+00
  0.00000000E+00  0.00000000E+00  0.00000000E+00
  0.00000000E+00  0.00000000E+00  0.00000000E+00
  0.00000000E+00  0.00000000E+00  0.00000000E+00
  0.00000000E+00  0.00000000E+00  0.00000000E+00
  0.00000000E+00  0.00000000E+00  0.00000000E+00
  0.00000000E+00  0.00000000E+00  0.00000000E+00
  0.00000000E+00  0.00000000E+00  0.00000000E+00
  0.00000000E+00  0.00000000E+00  0.00000000E+00
  0.00000000E+00  0.00000000E+00  0.00000000E+00
  0.00000000E+00  0.00000000E+00  0.00000000E+00
  0.00000000E+00  0.00000000E+00  0.00000000E+00
  0.00000000E+00  0.00000000E+00  0.00000000E+00
  0.00000000E+00  0.00000000E+00  0.00000000E+00
  0.00000000E+00  0.00000000E+00  0.00000000E+00
  0.00000000E+00  0.00000000E+00  0.00000000E+00
  0.00000000E+00  0.00000000E+00  0.00000000E+00
  0.00000000E+00  0.00000000E+00  0.00000000E+00
  0.00000000E+00  0.00000000E+00  0.00000000E+00
  0.00000000E+00  0.00000000E+00  0.00000000E+00
  0.00000000E+00  0.00000000E+00  0.00000000E+00
  0.00000000E+00  0.00000000E+00  0.00000000E+00
  0.00000000E+00  0.00000000E+00  0.00000000E+00
  0.00000000E+00  0.00000000E+00  0.00000000E+00
  0.00000000E+00  0.00000000E+00  0.00000000E+00
  0.00000000E+00  0.00000000E+00  0.00000000E+00
  0.00000000E+00  0.00000000E+00  0.00000000E+00
  0.00000000E+00  0.00000000E+00  0.00000000E+00
  0.00000000E+00  0.00000000E+00  0.00000000E+00
  0.00000000E+00  0.00000000E+00  0.00000000E+00
  0.00000000E+00  0.00000000E+00  0.00000000E+00
  0.00000000E+00  0.00000000E+00  0.00000000E+00
  0.00000000E+00  0.00000000E+00  0.00000000E+00
  0.00000000E+00  0.00000000E+00  0.00000000E+00
  0.00000000E+00  0.00000000E+00  0.00000000E+00
  0.00000000E+00  0.00000000E+00  0.00000000E+00
  0.00000000E+00  0.00000000E+00  0.00000000E+00
  0.00000000E+00  0.00000000E+00  0.00000000E+00
  0.00000000E+00  0.00000000E+00  0.00000000E+00
  0.00000000E+00  0.00000000E+00  0.00000000E+00
  0.00000000E+00  0.00000000E+00  0.00000000E+00
  0.00000000E+00  0.00000000E+00  0.00000000E+00
  0.00000000E+00  0.00000000E+00  0.00000000E+00
  0.00000000E+00  0.00000000E+00  0.00000000E+00
  0.00000000E+00  0.00000000E+00  0.00000000E+00
  0.00000000E+00  0.00000000E+00  0.00000000E+00
  0.00000000E+00  0.00000000E+00  0.00000000E+00
  0.00000000E+00  0.00000000E+00  0.00000000E+00
  0.00000000E+00  0.00000000E+00  0.00000000E+00
  0.00000000E+00  0.00000000E+00  0.00000000E+00
  0.00000000E+00  0.00000000E+00  0.00000000E+00
  0.00000000E+00  0.00000000E+00  0.00000000E+00
  0.00000000E+00  0.00000000E+00  0.00000000E+00
  0.00000000E+00  0.00000000E+00  0.00000000E+00
  0.00000000E+00  0.00000000E+00  0.00000000E+00
  0.00000000E+00  0.00000000E+00  0.00000000E+00
  0.00000000E+00  0.00000000E+00  0.00000000E+00
  0.00000000E+00  0.00000000E+00  0.00000000E+00
  0.00000000E+00  0.00000000E+00  0.00000000E+00
  0.00000000E+00  0.00000000E+00  0.00000000E+00
  0.00000000E+00  0.00000000E+00  0.00000000E+00
  0.00000000E+00  0.00000000E+00  0.00000000E+00
  0.00000000E+00  0.00000000E+00  0.00000000E+00
  0.00000000E+00  0.00000000E+00  0.00000000E+00
  0.00000000E+00  0.00000000E+00  0.00000000E+00
  0.00000000E+00  0.00000000E+00  0.00000000E+00
  0.00000000E+00  0.00000000E+00  0.00000000E+00
  0.00000000E+00  0.00000000E+00  0.00000000E+00
  0.00000000E+00  0.00000000E+00  0.00000000E+00
  0.00000000E+00  0.00000000E+00  0.00000000E+00
  0.00000000E+00  0.00000000E+00  0.00000000E+00
  0.00000000E+00  0.00000000E+00  0.00000000E+00
  0.00000000E+00  0.00000000E+00  0.00000000E+00
  0.00000000E+00  0.00000000E+00  0.00000000E+00
  0.00000000E+00  0.00000000E+00  0.00000000E+00
  0.00000000E+00  0.00000000E+00  0.00000000E+00
  0.00000000E+00  0.00000000E+00  0.00000000E+00
  0.00000000E+00  0.00000000E+00  0.00000000E+00
  0.00000000E+00  0.00000000E+00  0.00000000E+00
  0.00000000E+00  0.00000000E+00  0.00000000E+00
  0.00000000E+00  0.00000000E+00  0.00000000E+00
  0.00000000E+00  0.00000000E+00  0.00000000E+00
  0.00000000E+00  0.00000000E+00  0.00000000E+00
  0.00000000E+00  0.00000000E+00  0.00000000E+00
  0.00000000E+00  0.00000000E+00  0.00000000E+00
  0.00000000E+00  0.00000000E+00  0.00000000E+00
  0.00000000E+00  0.00000000E+00  0.00000000E+00
