POSCAR
1.0
    10.11163000     0.00000000     0.00000000
    -5.05581500     8.75692845     0.00000000
     0.00000000     0.00000000    21.26643000
  Fe  Ni  O  H
  48  16  5  1
Selective
Direct
     0.00194700     0.99920000     0.09682900   F F F
     0.99614500     0.99532500     0.38029900   T T T
     0.49880600     0.99647600     0.09614500   F F F
     0.50049900     0.99109200     0.37823100   T T T
     0.74316000     0.99645900     0.09443100   F F F
     0.75301400     0.99824700     0.38635500   T T T
     0.24913600     0.25322600     0.09681000   F F F
     0.24491700     0.24092200     0.38186200   T T T
     0.08873200     0.16149400     0.19059200   F F F
     0.32962600     0.16609800     0.19506300   F F F
     0.16468800     0.07798100     0.28749800   T T T
     0.58333000     0.16550300     0.19443700   F F F
     0.41292300     0.08131500     0.29005600   T T T
     0.82651500     0.16651000     0.19326300   F F F
     0.66636300     0.08082300     0.28885800   T T T
     0.00320800     0.51090900     0.09451300   F F F
     0.00387200     0.50206500     0.37518400   T T T
     0.25586900     0.50577700     0.09734600   F F F
     0.24678900     0.48889600     0.38476100   T T T
     0.49960200     0.50304900     0.09754100   F F F
     0.49827500     0.49353000     0.37515500   T T T
     0.33859900     0.41583700     0.18939300   F F F
     0.75679100     0.50804300     0.09630900   F F F
     0.74863800     0.49375300     0.38975000   T T T
     0.58633600     0.42229400     0.19423600   F F F
     0.41335400     0.33077900     0.28575500   T T T
     0.82677100     0.41676200     0.19199500   F F F
     0.66928500     0.33458000     0.29151200   T T T
     0.99180600     0.74702800     0.09571300   F F F
     0.00349600     0.75023300     0.38373600   T T T
     0.25104600     0.74563900     0.09703600   F F F
     0.24902800     0.74708700     0.38727700   T T T
     0.08604600     0.67086900     0.19220200   F F F
     0.50153700     0.74905700     0.09752900   F F F
     0.50269800     0.74557800     0.38461700   T T T
     0.33005900     0.66135600     0.19018600   F F F
     0.16786800     0.58079100     0.28566700   T T T
     0.74777500     0.74863100     0.09404500   F F F
     0.74730800     0.75097900     0.38657500   T T T
     0.58008200     0.66096300     0.19152700   F F F
     0.83213700     0.66199500     0.19303500   F F F
     0.67317200     0.58357200     0.28673200   T T T
     0.91876200     0.58655500     0.28135100   T T T
     0.08603600     0.91635500     0.19371200   F F F
     0.32743000     0.91932200     0.19293700   F F F
     0.16396000     0.82701100     0.28981500   T T T
     0.66534600     0.83075400     0.28864100   T T T
     0.91612500     0.82980400     0.28529300   T T T
     0.24916500     0.99813100     0.09559800   F F F
     0.24845300     0.99066200     0.38643500   T T T
     0.00129700     0.24974200     0.09658600   F F F
     0.00681600     0.25146900     0.38149200   T T T
     0.49933100     0.25162700     0.09537300   F F F
     0.49481700     0.24172400     0.38905700   T T T
     0.74944200     0.25071300     0.09573100   F F F
     0.75411400     0.24772500     0.38456200   T T T
     0.91889900     0.08430900     0.28608800   T T T
     0.08260800     0.41708000     0.19225300   F F F
     0.16720200     0.33233200     0.28667400   T T T
     0.91336800     0.33121800     0.28562800   T T T
     0.41440000     0.58085100     0.28559100   T T T
     0.58190700     0.91526900     0.19241300   F F F
     0.41322900     0.82726500     0.28586400   T T T
     0.83399900     0.91457100     0.19240400   F F F
     0.83829200     0.67332700     0.43777000   T T T
     0.31330800     0.16053300     0.43921900   T T T
     0.33383100     0.65743000     0.43813300   T T T
     0.84504900     0.15987800     0.43976400   T T T
     0.67568700     0.32622500     0.44906400   T T T
     0.72860165     0.29416997     0.48747685   T T T
