POSCAR                                  
   1.00000000000000     
     9.9295000000000009    0.0000000000000000    0.0000000000000000
     3.3098332300000002    9.3616224199999998    0.0000000000000000
     0.0000000000000000    0.0000000000000000   21.0805499999999988
   Fe   O 
    64     5
Selective dynamics
Direct
  0.0873890000000017  0.1626109999999983  0.0948739999999972   F   F   F
  0.0893520153402676  0.1615855316967867  0.2848320641727184   F   F   F
  0.2123890000000017  0.0376109999999983  0.1910219999999967   F   F   F
  0.2138218995934480  0.0337163039519055  0.3755728024035037   F   F   F
  0.3373890000000017  0.1626109999999983  0.0948739999999972   F   F   F
  0.3393843692486485  0.1636393964919662  0.2848414404843425   F   F   F
  0.4623890000000017  0.0376109999999983  0.1910219999999967   F   F   F
  0.4647258141125334  0.0450875160043438  0.3798949059961885   F   F   F
  0.5873890000000017  0.1626109999999983  0.0948739999999972   F   F   F
  0.5896728397114614  0.1613248673722225  0.2860242672726869   F   F   F
  0.7123890000000017  0.0376109999999983  0.1910219999999967   F   F   F
  0.7161126477516504  0.0268224730218876  0.3776338588432750   F   F   F
  0.8373890000000017  0.1626109999999983  0.0948739999999972   F   F   F
  0.8394257861686896  0.1610181089097082  0.2845021773407197   F   F   F
  0.9623890000000017  0.0376109999999983  0.1910219999999967   F   F   F
  0.9688252567611570  0.0327948344860474  0.3785559016966289   F   F   F
  0.0873890000000017  0.4126109999999983  0.0948739999999972   F   F   F
  0.0867210754081142  0.4118652372395175  0.2852754681318714   F   F   F
  0.2123890000000017  0.2876109999999983  0.1910219999999967   F   F   F
  0.2120294468356931  0.2880030597411647  0.3797776350107611   F   F   F
  0.3373890000000017  0.4126109999999983  0.0948739999999972   F   F   F
  0.3350187335856134  0.4155127234519540  0.2851487739577863   F   F   F
  0.4623890000000017  0.2876109999999983  0.1910219999999967   F   F   F
  0.4609014820387429  0.2988470030458927  0.3804231681904540   F   F   F
  0.5873890000000017  0.4126109999999983  0.0948739999999972   F   F   F
  0.5860759404100975  0.4119107783946490  0.2865017052674759   F   F   F
  0.7123890000000017  0.2876109999999983  0.1910219999999967   F   F   F
  0.7193766344762551  0.2835480229137275  0.3808611973958236   F   F   F
  0.8373890000000017  0.4126109999999983  0.0948739999999972   F   F   F
  0.8365651604112117  0.4113520543439293  0.2852132148031146   F   F   F
  0.9623890000000017  0.2876109999999983  0.1910219999999967   F   F   F
  0.9676933582774438  0.2842855216060158  0.3758721513429251   F   F   F
  0.0873890000000017  0.6626109999999983  0.0948739999999972   F   F   F
  0.0875733906570488  0.6608452609018727  0.2838603346432507   F   F   F
  0.2123890000000017  0.5376109999999983  0.1910219999999967   F   F   F
  0.1987615527738882  0.5370543866980171  0.3768881447751440   F   F   F
  0.3373890000000017  0.6626109999999983  0.0948739999999972   F   F   F
  0.3366997394453790  0.6621157254648296  0.2822323089316114   F   F   F
  0.4623890000000017  0.5376109999999983  0.1910219999999967   F   F   F
  0.4483983068945463  0.5613954532879291  0.3842577389831874   F   F   F
  0.5873890000000017  0.6626109999999983  0.0948739999999972   F   F   F
  0.5874003214145560  0.6588012258871530  0.2851335847080776   F   F   F
  0.7123890000000017  0.5376109999999983  0.1910219999999967   F   F   F
  0.7049308659107254  0.5327374835117666  0.3786091589661567   F   F   F
  0.8373890000000017  0.6626109999999983  0.0948739999999972   F   F   F
  0.8365861731921740  0.6615925913191845  0.2842652064792190   F   F   F
  0.9623890000000017  0.5376109999999983  0.1910219999999967   F   F   F
  0.9602781327585674  0.5329251334597487  0.3794022032441049   F   F   F
  0.0873890000000017  0.9126109999999983  0.0948739999999972   F   F   F
  0.0892213339046606  0.9111455108717124  0.2850912221320385   F   F   F
  0.2123890000000017  0.7876109999999983  0.1910219999999967   F   F   F
  0.2253173724880995  0.7867708039172854  0.3802383323068099   F   F   F
  0.3373890000000017  0.9126109999999983  0.0948739999999972   F   F   F
  0.3348377782027399  0.9145657666723537  0.2828919785876778   F   F   F
  0.4623890000000017  0.7876109999999983  0.1910219999999967   F   F   F
  0.4590421524294257  0.7988173903379092  0.3729223777402169   F   F   F
  0.5873890000000017  0.9126109999999983  0.0948739999999972   F   F   F
  0.5867665163406315  0.9115236364557262  0.2864367522165026   F   F   F
  0.7123890000000017  0.7876109999999983  0.1910219999999967   F   F   F
  0.7155345828802169  0.7844037262358796  0.3793829497577761   F   F   F
  0.8373890000000017  0.9126109999999983  0.0948739999999972   F   F   F
  0.8372662451261093  0.9115378602133575  0.2840321367368617   F   F   F
  0.9623890000000017  0.7876109999999983  0.1910219999999967   F   F   F
  0.9647445226895570  0.7873025993782079  0.3727892165816087   F   F   F
  0.3690017190999484  0.1998569257801321  0.4314837090070753   F   F   F
  0.8115581428220082  0.1170290668183469  0.4298606430891141   F   F   F
  0.8019463826044486  0.6241446700583708  0.4307853950555014   F   F   F
  0.2771329571771801  0.6299105057450305  0.4331710778349276   F   F   F
  0.5615724507512353  0.3944187065429645  0.4266939916459989   T   T   T
 
  0.00000000E+00  0.00000000E+00  0.00000000E+00
  0.00000000E+00  0.00000000E+00  0.00000000E+00
  0.00000000E+00  0.00000000E+00  0.00000000E+00
  0.00000000E+00  0.00000000E+00  0.00000000E+00
  0.00000000E+00  0.00000000E+00  0.00000000E+00
  0.00000000E+00  0.00000000E+00  0.00000000E+00
  0.00000000E+00  0.00000000E+00  0.00000000E+00
  0.00000000E+00  0.00000000E+00  0.00000000E+00
  0.00000000E+00  0.00000000E+00  0.00000000E+00
  0.00000000E+00  0.00000000E+00  0.00000000E+00
  0.00000000E+00  0.00000000E+00  0.00000000E+00
  0.00000000E+00  0.00000000E+00  0.00000000E+00
  0.00000000E+00  0.00000000E+00  0.00000000E+00
  0.00000000E+00  0.00000000E+00  0.00000000E+00
  0.00000000E+00  0.00000000E+00  0.00000000E+00
  0.00000000E+00  0.00000000E+00  0.00000000E+00
  0.00000000E+00  0.00000000E+00  0.00000000E+00
  0.00000000E+00  0.00000000E+00  0.00000000E+00
  0.00000000E+00  0.00000000E+00  0.00000000E+00
  0.00000000E+00  0.00000000E+00  0.00000000E+00
  0.00000000E+00  0.00000000E+00  0.00000000E+00
  0.00000000E+00  0.00000000E+00  0.00000000E+00
  0.00000000E+00  0.00000000E+00  0.00000000E+00
  0.00000000E+00  0.00000000E+00  0.00000000E+00
  0.00000000E+00  0.00000000E+00  0.00000000E+00
  0.00000000E+00  0.00000000E+00  0.00000000E+00
  0.00000000E+00  0.00000000E+00  0.00000000E+00
  0.00000000E+00  0.00000000E+00  0.00000000E+00
  0.00000000E+00  0.00000000E+00  0.00000000E+00
  0.00000000E+00  0.00000000E+00  0.00000000E+00
  0.00000000E+00  0.00000000E+00  0.00000000E+00
  0.00000000E+00  0.00000000E+00  0.00000000E+00
  0.00000000E+00  0.00000000E+00  0.00000000E+00
  0.00000000E+00  0.00000000E+00  0.00000000E+00
  0.00000000E+00  0.00000000E+00  0.00000000E+00
  0.00000000E+00  0.00000000E+00  0.00000000E+00
  0.00000000E+00  0.00000000E+00  0.00000000E+00
  0.00000000E+00  0.00000000E+00  0.00000000E+00
  0.00000000E+00  0.00000000E+00  0.00000000E+00
  0.00000000E+00  0.00000000E+00  0.00000000E+00
  0.00000000E+00  0.00000000E+00  0.00000000E+00
  0.00000000E+00  0.00000000E+00  0.00000000E+00
  0.00000000E+00  0.00000000E+00  0.00000000E+00
  0.00000000E+00  0.00000000E+00  0.00000000E+00
  0.00000000E+00  0.00000000E+00  0.00000000E+00
  0.00000000E+00  0.00000000E+00  0.00000000E+00
  0.00000000E+00  0.00000000E+00  0.00000000E+00
  0.00000000E+00  0.00000000E+00  0.00000000E+00
  0.00000000E+00  0.00000000E+00  0.00000000E+00
  0.00000000E+00  0.00000000E+00  0.00000000E+00
  0.00000000E+00  0.00000000E+00  0.00000000E+00
  0.00000000E+00  0.00000000E+00  0.00000000E+00
  0.00000000E+00  0.00000000E+00  0.00000000E+00
  0.00000000E+00  0.00000000E+00  0.00000000E+00
  0.00000000E+00  0.00000000E+00  0.00000000E+00
  0.00000000E+00  0.00000000E+00  0.00000000E+00
  0.00000000E+00  0.00000000E+00  0.00000000E+00
  0.00000000E+00  0.00000000E+00  0.00000000E+00
  0.00000000E+00  0.00000000E+00  0.00000000E+00
  0.00000000E+00  0.00000000E+00  0.00000000E+00
  0.00000000E+00  0.00000000E+00  0.00000000E+00
  0.00000000E+00  0.00000000E+00  0.00000000E+00
  0.00000000E+00  0.00000000E+00  0.00000000E+00
  0.00000000E+00  0.00000000E+00  0.00000000E+00
  0.00000000E+00  0.00000000E+00  0.00000000E+00
  0.00000000E+00  0.00000000E+00  0.00000000E+00
  0.00000000E+00  0.00000000E+00  0.00000000E+00
  0.00000000E+00  0.00000000E+00  0.00000000E+00
  0.00000000E+00  0.00000000E+00  0.00000000E+00
