POSCAR                                  
   1.00000000000000     
    10.1116299999999999    0.0000000000000000    0.0000000000000000
    -5.0558149999999999    8.7569284500000002    0.0000000000000000
     0.0000000000000000    0.0000000000000000   21.3136181499999999
   Fe   Ni
    47    17
Selective dynamics
Direct
  0.0019470000000013  0.9992000000000019  0.1950471099999973   F   F   F
  0.4988060000000019  0.9964760000000012  0.1943646799999996   F   F   F
  0.7431600000000032  0.9964590000000015  0.1926537900000014   F   F   F
  0.2491360000000000  0.2532259999999980  0.1950282299999984   F   F   F
  0.0900635142530515  0.1634427453825810  0.2846054088416054   T   T   T
  0.3298943360639106  0.1661954973459802  0.2873576805337953   T   T   T
  0.1676629999999975  0.0809440000000023  0.0947608700000018   F   F   F
  0.1702477327397338  0.0837083857755557  0.3734334089995484   T   T   T
  0.5812333070255143  0.1624338789327291  0.2859298913737274   T   T   T
  0.4220779999999991  0.0874250000000032  0.0945996299999976   F   F   F
  0.4174511006822433  0.0853404592536981  0.3725620749814280   T   T   T
  0.8265228922042738  0.1652422025888292  0.2867540960231440   T   T   T
  0.6673759999999973  0.0832770000000025  0.0966591399999999   F   F   F
  0.6705041251261822  0.0945930830262344  0.3734919329710088   T   T   T
  0.0032080000000008  0.5109089999999981  0.1927363000000000   F   F   F
  0.2558689999999970  0.5057770000000019  0.1955630799999994   F   F   F
  0.4996020000000030  0.5030489999999972  0.1957571499999986   F   F   F
  0.3377747245714199  0.4142003841530881  0.2844686069716882   T   T   T
  0.7567909999999998  0.5080430000000007  0.1945282399999968   F   F   F
  0.5874225562795922  0.4230642904833724  0.2865028737346255   T   T   T
  0.4203279999999978  0.3267179999999996  0.0953032800000031   F   F   F
  0.4174883193456994  0.3267646270260999  0.3738339350297562   T   T   T
  0.8255649219252850  0.4154719673567693  0.2861972842310998   T   T   T
  0.6624929999999978  0.3354240000000033  0.0938367199999988   F   F   F
  0.6658419144827368  0.3347382956689043  0.3742465490943724   T   T   T
  0.9918059999999969  0.7470280000000002  0.1939332500000006   F   F   F
  0.2510460000000023  0.7456389999999971  0.1952536699999996   F   F   F
  0.0839186558967567  0.6716909948507082  0.2855815966317601   T   T   T
  0.5015369999999990  0.7490570000000005  0.1957449499999981   F   F   F
  0.3279960261322183  0.6609471191628721  0.2859481030322482   T   T   T
  0.1640700000000024  0.5890419999999992  0.0986219099999985   F   F   F
  0.1694012546747382  0.5941286894510069  0.3740483078137112   T   T   T
  0.7477749999999972  0.7486310000000032  0.1922688499999978   F   F   F
  0.5797332002043541  0.6632108040749169  0.2860840859521049   T   T   T
  0.8343652382480379  0.6609458972097951  0.2872760822676375   T   T   T
  0.6721440000000030  0.5852939999999975  0.0961759999999998   F   F   F
  0.6713923029142141  0.5855064620016207  0.3739027687262771   T   T   T
  0.9190749999999994  0.5873309999999989  0.0979173899999992   F   F   F
  0.9148793489043198  0.5843626424363372  0.3736786636185347   T   T   T
  0.0852515586306397  0.9150804785114515  0.2869338140382025   T   T   T
  0.3257699881024388  0.9162203343924136  0.2868254934418170   T   T   T
  0.1627429999999990  0.8315359999999998  0.0945450099999974   F   F   F
  0.1662895484808939  0.8329430391137184  0.3753342757270477   T   T   T
  0.6687829999999977  0.8308299999999988  0.0995390900000004   F   F   F
  0.6713363325588830  0.8247085863252469  0.3750031609019019   T   T   T
  0.9185230000000004  0.8270600000000030  0.0980696299999977   F   F   F
  0.9166668737505009  0.8259606520592331  0.3742121683916139   T   T   T
  0.2491649999999979  0.9981310000000008  0.1938187800000009   F   F   F
  0.0012970000000010  0.2497419999999977  0.1948042400000034   F   F   F
  0.4993309999999980  0.2516269999999992  0.1935936300000023   F   F   F
  0.7494420000000019  0.2507129999999975  0.1939509700000031   F   F   F
  0.9142409999999970  0.0792939999999973  0.0968584399999983   F   F   F
  0.9154244297178592  0.0812956342835787  0.3765568396971342   T   T   T
  0.0818861007296516  0.4162903141849488  0.2850565802750791   T   T   T
  0.1707729999999970  0.3343709999999973  0.0969322300000002   F   F   F
  0.1694952653271715  0.3318395323816313  0.3780840601037833   T   T   T
  0.9156699999999987  0.3364639999999994  0.0964531600000029   F   F   F
  0.9159817355054379  0.3367242739543909  0.3785874262341811   T   T   T
  0.4192359999999979  0.5847150000000028  0.0972468699999993   F   F   F
  0.4193118768271259  0.5847096626818081  0.3786209584265955   T   T   T
  0.5817083735688697  0.9141384580009909  0.2859404097731767   T   T   T
  0.4146700000000010  0.8342889999999983  0.0974859700000010   F   F   F
  0.4172233298674370  0.8360361842517954  0.3790737049261905   T   T   T
  0.8340439608191749  0.9151460476749881  0.2845969814297251   T   T   T
 
  0.00000000E+00  0.00000000E+00  0.00000000E+00
  0.00000000E+00  0.00000000E+00  0.00000000E+00
  0.00000000E+00  0.00000000E+00  0.00000000E+00
  0.00000000E+00  0.00000000E+00  0.00000000E+00
  0.00000000E+00  0.00000000E+00  0.00000000E+00
  0.00000000E+00  0.00000000E+00  0.00000000E+00
  0.00000000E+00  0.00000000E+00  0.00000000E+00
  0.00000000E+00  0.00000000E+00  0.00000000E+00
  0.00000000E+00  0.00000000E+00  0.00000000E+00
  0.00000000E+00  0.00000000E+00  0.00000000E+00
  0.00000000E+00  0.00000000E+00  0.00000000E+00
  0.00000000E+00  0.00000000E+00  0.00000000E+00
  0.00000000E+00  0.00000000E+00  0.00000000E+00
  0.00000000E+00  0.00000000E+00  0.00000000E+00
  0.00000000E+00  0.00000000E+00  0.00000000E+00
  0.00000000E+00  0.00000000E+00  0.00000000E+00
  0.00000000E+00  0.00000000E+00  0.00000000E+00
  0.00000000E+00  0.00000000E+00  0.00000000E+00
  0.00000000E+00  0.00000000E+00  0.00000000E+00
  0.00000000E+00  0.00000000E+00  0.00000000E+00
  0.00000000E+00  0.00000000E+00  0.00000000E+00
  0.00000000E+00  0.00000000E+00  0.00000000E+00
  0.00000000E+00  0.00000000E+00  0.00000000E+00
  0.00000000E+00  0.00000000E+00  0.00000000E+00
  0.00000000E+00  0.00000000E+00  0.00000000E+00
  0.00000000E+00  0.00000000E+00  0.00000000E+00
  0.00000000E+00  0.00000000E+00  0.00000000E+00
  0.00000000E+00  0.00000000E+00  0.00000000E+00
  0.00000000E+00  0.00000000E+00  0.00000000E+00
  0.00000000E+00  0.00000000E+00  0.00000000E+00
  0.00000000E+00  0.00000000E+00  0.00000000E+00
  0.00000000E+00  0.00000000E+00  0.00000000E+00
  0.00000000E+00  0.00000000E+00  0.00000000E+00
  0.00000000E+00  0.00000000E+00  0.00000000E+00
  0.00000000E+00  0.00000000E+00  0.00000000E+00
  0.00000000E+00  0.00000000E+00  0.00000000E+00
  0.00000000E+00  0.00000000E+00  0.00000000E+00
  0.00000000E+00  0.00000000E+00  0.00000000E+00
  0.00000000E+00  0.00000000E+00  0.00000000E+00
  0.00000000E+00  0.00000000E+00  0.00000000E+00
  0.00000000E+00  0.00000000E+00  0.00000000E+00
  0.00000000E+00  0.00000000E+00  0.00000000E+00
  0.00000000E+00  0.00000000E+00  0.00000000E+00
  0.00000000E+00  0.00000000E+00  0.00000000E+00
  0.00000000E+00  0.00000000E+00  0.00000000E+00
  0.00000000E+00  0.00000000E+00  0.00000000E+00
  0.00000000E+00  0.00000000E+00  0.00000000E+00
  0.00000000E+00  0.00000000E+00  0.00000000E+00
  0.00000000E+00  0.00000000E+00  0.00000000E+00
  0.00000000E+00  0.00000000E+00  0.00000000E+00
  0.00000000E+00  0.00000000E+00  0.00000000E+00
  0.00000000E+00  0.00000000E+00  0.00000000E+00
  0.00000000E+00  0.00000000E+00  0.00000000E+00
  0.00000000E+00  0.00000000E+00  0.00000000E+00
  0.00000000E+00  0.00000000E+00  0.00000000E+00
  0.00000000E+00  0.00000000E+00  0.00000000E+00
  0.00000000E+00  0.00000000E+00  0.00000000E+00
  0.00000000E+00  0.00000000E+00  0.00000000E+00
  0.00000000E+00  0.00000000E+00  0.00000000E+00
  0.00000000E+00  0.00000000E+00  0.00000000E+00
  0.00000000E+00  0.00000000E+00  0.00000000E+00
  0.00000000E+00  0.00000000E+00  0.00000000E+00
  0.00000000E+00  0.00000000E+00  0.00000000E+00
  0.00000000E+00  0.00000000E+00  0.00000000E+00
