POSCAR                                  
   3.54500000000000     
     0.5000000000000000    0.5000000000000000   -1.0000000000000000
     0.0000000000000000   -1.5000000000000000   -0.5000000000000000
    -2.0000000000000000    0.5000000000000000   -0.5000000000000000
   Ni   Fe
    12     4
Direct
  0.2473974799141752  0.6888219702079209  0.8165970280588707
  0.9977311611577868  0.2492610033838541  0.7512712024949384
  0.2499359000127992  0.9377004873357327  0.5645804964635119
  0.0000988606626692  0.4998002277022158  0.4979181499168978
  0.0026103332464245  0.7486629742541793  0.2459154098447331
  0.7434408585618892  0.8124678174481389  0.6904360248828907
  0.5018085387368419  0.3743526715847924  0.6301600639243149
  0.5065534812680500  0.6250324405097508  0.3720644671053142
  0.2522769291671364  0.1882499842612364  0.3112319620494859
  0.2472356339698736  0.4396739930812773  0.0628618499598618
  0.0027664885075798  0.9978341438625710  0.9996353514591018
  0.7481851187336699  0.0631458189637977  0.4323271078240222
  0.7371827495354979  0.5556644543616004  0.9456352073448163
  0.5079585324845999  0.1318790007208700  0.8853412899356444
  0.5128149288970640  0.8818100379560950  0.1168698872203389
  0.7420030051439280  0.3056429743659672  0.1771545015152569
 
  0.00000000E+00  0.00000000E+00  0.00000000E+00
  0.00000000E+00  0.00000000E+00  0.00000000E+00
  0.00000000E+00  0.00000000E+00  0.00000000E+00
  0.00000000E+00  0.00000000E+00  0.00000000E+00
  0.00000000E+00  0.00000000E+00  0.00000000E+00
  0.00000000E+00  0.00000000E+00  0.00000000E+00
  0.00000000E+00  0.00000000E+00  0.00000000E+00
  0.00000000E+00  0.00000000E+00  0.00000000E+00
  0.00000000E+00  0.00000000E+00  0.00000000E+00
  0.00000000E+00  0.00000000E+00  0.00000000E+00
  0.00000000E+00  0.00000000E+00  0.00000000E+00
  0.00000000E+00  0.00000000E+00  0.00000000E+00
  0.00000000E+00  0.00000000E+00  0.00000000E+00
  0.00000000E+00  0.00000000E+00  0.00000000E+00
  0.00000000E+00  0.00000000E+00  0.00000000E+00
  0.00000000E+00  0.00000000E+00  0.00000000E+00
