POSCAR                                  
   3.54500000000000     
     2.0000000000000000   -2.0000000000000000    0.0000000000000000
     0.0000000000000000    2.0000000000000000   -2.0000000000000000
     1.0000000000000000    1.0000000000000000    1.0000000000000000
   Ni   Fe
    36    12
Direct
  0.0005291500840821  0.0005301184836641  0.0017207298973304
  0.2500133873246996  0.0002871267203815 -0.0012397882426370
  0.4994871409906109 -0.0009201274156335  0.0012639201987867
  0.7493018447357723 -0.0008068666069901  0.0015460482146330
 -0.0013595596784249  0.2485066111123952  0.0011889524779401
  0.2501255462559649  0.2502163526807639  0.9999521979357001
  0.0828823617868221  0.1663320682496127  0.3344900693726234
  0.5006422573811792  0.2489125597977576  0.0014959515284733
  0.3329387924480172  0.1668575491830874  0.3347169494794288
  0.7505253914559006  0.2500615439790331  0.0043486736831129
  0.5823065000480124  0.1672013601867753  0.3380328247132924
  0.8340317266527194  0.1667236128571058  0.3371619171955457
  0.6655813458017417  0.0830552763107929  0.6689066785837402
  0.9163969144329206  0.0820314793085363  0.6670669181301031
  0.0018337470186890  0.5004750601285740 -0.0036092809522362
  0.0809222814986885  0.4160973717630918  0.3354262187583313
  0.1661183101512582  0.3339520780648759  0.6671570052481820
  0.7517024963890241  0.5018689645364598 -0.0028597317785920
  0.5835730086157680  0.4161722897049418  0.3353768391880441
  0.0010906292544439  0.7511524937780906 -0.0025929858628599
  0.2490259733339739  0.7488569626362843 -0.0032533743093846
  0.0837578488897141  0.6681035373164290  0.3314558332008518
  0.4997249160331306  0.7491726158063419 -0.0027380808425568
  0.3329740431240760  0.6672767945769262  0.3300432599895809
  0.7512830351595395  0.7509363520482032 -0.0000037554788484
  0.5829809164967573  0.6666819405404655  0.3304627599140105
  0.4166100821862793  0.5820017050186683  0.6628133911323110
  0.8339590350335314  0.6677062034872993  0.3320828608908960
  0.9170826023150469  0.5832387830087504  0.6627359667257438
  0.0829168690590683  0.9168580151493623  0.3327975348411619
  0.3342055357456957  0.9170537189708219  0.3334728730597540
  0.1667085498790727  0.8352421463274737  0.6647070407438178
  0.4170353080321373  0.8321485798853894  0.6670988233662332
  0.8323310141571676  0.9171500594847531  0.3367676067897145
  0.6662390889131281  0.8333695921459633  0.6680727319047353
  0.9170592037924403  0.8331948147724917  0.6674554849143978
  0.1616853918231420  0.0821153106115346  0.6645021308439455
  0.4160748277307162  0.0780706693558763  0.6661124191481085
  0.2482987898728333  0.4990458768735210 -0.0010342472821247
  0.5064805391598846  0.5025948369764710  0.0015347901970026
  0.3313414559062728  0.4171432774712829  0.3348343735533987
  0.4163836319838113  0.3314434076379463  0.6686982662713588
  0.8335480755188311  0.4183896795677246  0.3303875407017574
  0.6673240646857385  0.3324059500089043  0.6750235137075827
  0.9144643611337511  0.3269549175981356  0.6736783184410456
  0.1691415321418064  0.5883339137549368  0.6581926859184504
  0.6696159178126829  0.5892885236948262  0.6595123576534897
  0.5831041174318679  0.9165148924498940  0.3350367862346242
 
  0.00000000E+00  0.00000000E+00  0.00000000E+00
  0.00000000E+00  0.00000000E+00  0.00000000E+00
  0.00000000E+00  0.00000000E+00  0.00000000E+00
  0.00000000E+00  0.00000000E+00  0.00000000E+00
  0.00000000E+00  0.00000000E+00  0.00000000E+00
  0.00000000E+00  0.00000000E+00  0.00000000E+00
  0.00000000E+00  0.00000000E+00  0.00000000E+00
  0.00000000E+00  0.00000000E+00  0.00000000E+00
  0.00000000E+00  0.00000000E+00  0.00000000E+00
  0.00000000E+00  0.00000000E+00  0.00000000E+00
  0.00000000E+00  0.00000000E+00  0.00000000E+00
  0.00000000E+00  0.00000000E+00  0.00000000E+00
  0.00000000E+00  0.00000000E+00  0.00000000E+00
  0.00000000E+00  0.00000000E+00  0.00000000E+00
  0.00000000E+00  0.00000000E+00  0.00000000E+00
  0.00000000E+00  0.00000000E+00  0.00000000E+00
  0.00000000E+00  0.00000000E+00  0.00000000E+00
  0.00000000E+00  0.00000000E+00  0.00000000E+00
  0.00000000E+00  0.00000000E+00  0.00000000E+00
  0.00000000E+00  0.00000000E+00  0.00000000E+00
  0.00000000E+00  0.00000000E+00  0.00000000E+00
  0.00000000E+00  0.00000000E+00  0.00000000E+00
  0.00000000E+00  0.00000000E+00  0.00000000E+00
  0.00000000E+00  0.00000000E+00  0.00000000E+00
  0.00000000E+00  0.00000000E+00  0.00000000E+00
  0.00000000E+00  0.00000000E+00  0.00000000E+00
  0.00000000E+00  0.00000000E+00  0.00000000E+00
  0.00000000E+00  0.00000000E+00  0.00000000E+00
  0.00000000E+00  0.00000000E+00  0.00000000E+00
  0.00000000E+00  0.00000000E+00  0.00000000E+00
  0.00000000E+00  0.00000000E+00  0.00000000E+00
  0.00000000E+00  0.00000000E+00  0.00000000E+00
  0.00000000E+00  0.00000000E+00  0.00000000E+00
  0.00000000E+00  0.00000000E+00  0.00000000E+00
  0.00000000E+00  0.00000000E+00  0.00000000E+00
  0.00000000E+00  0.00000000E+00  0.00000000E+00
  0.00000000E+00  0.00000000E+00  0.00000000E+00
  0.00000000E+00  0.00000000E+00  0.00000000E+00
  0.00000000E+00  0.00000000E+00  0.00000000E+00
  0.00000000E+00  0.00000000E+00  0.00000000E+00
  0.00000000E+00  0.00000000E+00  0.00000000E+00
  0.00000000E+00  0.00000000E+00  0.00000000E+00
  0.00000000E+00  0.00000000E+00  0.00000000E+00
  0.00000000E+00  0.00000000E+00  0.00000000E+00
  0.00000000E+00  0.00000000E+00  0.00000000E+00
  0.00000000E+00  0.00000000E+00  0.00000000E+00
  0.00000000E+00  0.00000000E+00  0.00000000E+00
  0.00000000E+00  0.00000000E+00  0.00000000E+00
