  SYSTEM = SQS-NiFe
  ISTART = 0; ICHARG = 2
  ENCUT = 520 
  ISIF = 2 
  ISMEAR = 1 ; SIGMA = 0.2
  ALGO = Fast
  NPAR = 3
#########
  EDIFF = 1E-5
  PREC = Accurate
  EDIFFG = -0.02
#########
  ISPIN = 2
  MAGMOM = 32*1.0 16*3.0 
  LCHARG = .FALSE.
  LWAVE = .FALSE.
  LORBIT = 10 
  LREAL = Auto
#########
  SYMPREC = 1E-4
  ISYM = 0
  NELM = 200
#########
  NSW = 99
  POTIM = 0.5
  IBRION = 2
#########VDW=DFT-D2
  #LVDW = .TRUE.
  #IVDW = 1
#########K-mesh
  KGAMMA = .TRUE.
  KSPACING = 0.3
