POSCAR                                  
   3.54500000000000     
     2.0000000000000000   -2.0000000000000000    0.0000000000000000
     0.0000000000000000    2.0000000000000000   -2.0000000000000000
     1.0000000000000000    1.0000000000000000    1.0000000000000000
   Ni   Fe
    36    12
Direct
  0.0015423796754889  0.0012145683598580  0.9958689933443521
  0.2510534539379926  0.0004671468604126  0.9957348900653441
  0.5001318094908501  0.0004876523227099  0.9987121385038578
  0.7484830925525853  0.9996775050756900  0.0024338759368807
  0.0015420814803886  0.2530689331747641  0.9983052873161116
  0.2523178367291030  0.2536972373022514  0.9976014710752248
  0.0858871384424934  0.1665656438416220  0.3356615437856434
  0.5003073977513812  0.2521057441778936  0.9968492273714834
  0.3328553486819325  0.1676386683688059  0.3350966698681537
  0.7521296165407374  0.2540150083703858  0.9977080824859489
  0.5842683811687952  0.1668825076908341  0.3359869978301663
  0.8328938648007422  0.1679244507440215  0.3356184589796611
  0.6660276398110861  0.0858962662059941  0.6649965160216843
  0.9179796709274359  0.0860160652325988  0.6675948059184608
  0.9995915595917217  0.4990784301079844  0.0016786300789468
  0.0863320294093194  0.4170888446135225  0.3332004120739541
  0.1681441787073151  0.3319305165712340  0.6657101594258339
  0.7479618843191732  0.4987810688054646  0.9996494822633513
  0.5821505170411860  0.4175034559105015  0.3335404483844754
  0.0002484728245524  0.7507219584664542  0.0007483568806049
  0.2483755706501942  0.7456489627528647  0.9976492068549653
  0.0813803513262997  0.6633097874564002  0.3379778935044129
  0.4989870197046863  0.7485743615909543  0.0032411261115232
  0.3328272612546890  0.6640800737713304  0.3345759680135066
  0.7464702289405323  0.7448971951294718  0.9954080845422612
  0.5821872391488830  0.6650504498196045  0.3347650132439570
  0.4149127095789906  0.5799579498990652  0.6671152045674610
  0.8325462182107209  0.6638183207713526  0.3358992501619511
  0.9142398129831372  0.5816446104737687  0.6702531110643485
  0.0839321510367344  0.9174850487640164  0.3357268070079664
  0.3367453329624891  0.9182681660592544  0.3343940070519879
  0.1688997185746469  0.8340943747312243  0.6665808970574452
  0.4165474203922589  0.8341429517815200  0.6636603843585861
  0.8312687913852094  0.9161955515888648  0.3307264075019178
  0.6664852283975309  0.8334227750956493  0.6644789421714494
  0.9163615834093779  0.8342302207915194  0.6657095073486927
  0.1751809318035898  0.0853049926468181  0.6665729138753707
  0.4161130979823276  0.0929300118189467  0.6678290630085834
  0.2539867308299819  0.5019847135467850  0.9945351950235278
  0.4917882321025450  0.4970339715990266  0.9938066010697595
  0.3360422396244816  0.4159043645387818  0.3307101509579732
  0.4207431718359171  0.3337201068653254  0.6664100237463633
  0.8318936731961887  0.4132063262045266  0.3495952806708313
  0.6642136239553190  0.3368510029724242  0.6597473710091237
  0.9202300627686026  0.3427575534676148  0.6610114545740808
  0.1616165508229140  0.5738816566821896  0.6730722396658593
  0.6602967954579894  0.5741680751427002  0.6710712706921770
  0.5838798977794679  0.9166747518349757  0.3347801775337642
 
  0.00000000E+00  0.00000000E+00  0.00000000E+00
  0.00000000E+00  0.00000000E+00  0.00000000E+00
  0.00000000E+00  0.00000000E+00  0.00000000E+00
  0.00000000E+00  0.00000000E+00  0.00000000E+00
  0.00000000E+00  0.00000000E+00  0.00000000E+00
  0.00000000E+00  0.00000000E+00  0.00000000E+00
  0.00000000E+00  0.00000000E+00  0.00000000E+00
  0.00000000E+00  0.00000000E+00  0.00000000E+00
  0.00000000E+00  0.00000000E+00  0.00000000E+00
  0.00000000E+00  0.00000000E+00  0.00000000E+00
  0.00000000E+00  0.00000000E+00  0.00000000E+00
  0.00000000E+00  0.00000000E+00  0.00000000E+00
  0.00000000E+00  0.00000000E+00  0.00000000E+00
  0.00000000E+00  0.00000000E+00  0.00000000E+00
  0.00000000E+00  0.00000000E+00  0.00000000E+00
  0.00000000E+00  0.00000000E+00  0.00000000E+00
  0.00000000E+00  0.00000000E+00  0.00000000E+00
  0.00000000E+00  0.00000000E+00  0.00000000E+00
  0.00000000E+00  0.00000000E+00  0.00000000E+00
  0.00000000E+00  0.00000000E+00  0.00000000E+00
  0.00000000E+00  0.00000000E+00  0.00000000E+00
  0.00000000E+00  0.00000000E+00  0.00000000E+00
  0.00000000E+00  0.00000000E+00  0.00000000E+00
  0.00000000E+00  0.00000000E+00  0.00000000E+00
  0.00000000E+00  0.00000000E+00  0.00000000E+00
  0.00000000E+00  0.00000000E+00  0.00000000E+00
  0.00000000E+00  0.00000000E+00  0.00000000E+00
  0.00000000E+00  0.00000000E+00  0.00000000E+00
  0.00000000E+00  0.00000000E+00  0.00000000E+00
  0.00000000E+00  0.00000000E+00  0.00000000E+00
  0.00000000E+00  0.00000000E+00  0.00000000E+00
  0.00000000E+00  0.00000000E+00  0.00000000E+00
  0.00000000E+00  0.00000000E+00  0.00000000E+00
  0.00000000E+00  0.00000000E+00  0.00000000E+00
  0.00000000E+00  0.00000000E+00  0.00000000E+00
  0.00000000E+00  0.00000000E+00  0.00000000E+00
  0.00000000E+00  0.00000000E+00  0.00000000E+00
  0.00000000E+00  0.00000000E+00  0.00000000E+00
  0.00000000E+00  0.00000000E+00  0.00000000E+00
  0.00000000E+00  0.00000000E+00  0.00000000E+00
  0.00000000E+00  0.00000000E+00  0.00000000E+00
  0.00000000E+00  0.00000000E+00  0.00000000E+00
  0.00000000E+00  0.00000000E+00  0.00000000E+00
  0.00000000E+00  0.00000000E+00  0.00000000E+00
  0.00000000E+00  0.00000000E+00  0.00000000E+00
  0.00000000E+00  0.00000000E+00  0.00000000E+00
  0.00000000E+00  0.00000000E+00  0.00000000E+00
  0.00000000E+00  0.00000000E+00  0.00000000E+00
