POSCAR                                  
   1.00000000000000     
     9.9673800000000004    0.0000000000000000    0.0000000000000000
    -4.9836900000000002    8.6320042899999994    0.0000000000000000
     0.0000000000000000    0.0000000000000000   21.1037500000000016
   Ni   O 
    64     5
Selective dynamics
Direct
  0.1128330000000020  0.2256670000000014  0.0947699999999969   F   F   F
  0.1087695386135863  0.2272857305328415  0.3818229561848341   T   T   T
  0.1961670000000026  0.1423330000000007  0.1911780000000007   F   F   F
  0.0297605460475552  0.0592700397342156  0.2845415436641900   T   T   T
  0.3628330000000020  0.2256670000000014  0.0947699999999969   F   F   F
  0.3603279174209320  0.2248054022775037  0.3897770814422188   T   T   T
  0.4461670000000026  0.1423330000000007  0.1911780000000007   F   F   F
  0.2796708164534536  0.0604066266974641  0.2855806587357321   T   T   T
  0.6128330000000020  0.2256670000000014  0.0947699999999969   F   F   F
  0.6135434743779555  0.2250220064430692  0.3894626826541980   T   T   T
  0.6961670000000026  0.1423330000000007  0.1911780000000007   F   F   F
  0.5303892383726492  0.0604039083596604  0.2855427088447726   T   T   T
  0.8628330000000020  0.2256670000000014  0.0947699999999969   F   F   F
  0.8677645152576048  0.2274068858261415  0.3817920425442836   T   T   T
  0.9461670000000026  0.1423330000000007  0.1911780000000007   F   F   F
  0.7792292851466982  0.0593013086986787  0.2845373372673023   T   T   T
  0.1128330000000020  0.4756670000000014  0.0947699999999969   F   F   F
  0.1110150275228818  0.4725411429345812  0.3825061554623375   T   T   T
  0.1961670000000026  0.3923330000000007  0.1911780000000007   F   F   F
  0.0296613740862313  0.3096435826122601  0.2863467707727949   T   T   T
  0.3628330000000020  0.4756670000000014  0.0947699999999969   F   F   F
  0.3613522790695853  0.4772184641598045  0.3767993077091845   T   T   T
  0.4461670000000026  0.3923330000000007  0.1911780000000007   F   F   F
  0.2796433563065435  0.3080985138599459  0.2856056282746664   T   T   T
  0.6128330000000020  0.4756670000000014  0.0947699999999969   F   F   F
  0.6138001731339742  0.4783003283670979  0.3897578897882497   T   T   T
  0.6961670000000026  0.3923330000000007  0.1911780000000007   F   F   F
  0.5293629992457198  0.3091772626899427  0.2877767669857079   T   T   T
  0.8628330000000020  0.4756670000000014  0.0947699999999969   F   F   F
  0.8653483395621606  0.4772726596568972  0.3767575655444162   T   T   T
  0.9461670000000026  0.3923330000000007  0.1911780000000007   F   F   F
  0.7781339928689661  0.3081403032352270  0.2855430151381881   T   T   T
  0.1128330000000020  0.7256670000000014  0.0947699999999969   F   F   F
  0.1110393356298189  0.7275448397718947  0.3825102246343732   T   T   T
  0.1961670000000026  0.6423330000000007  0.1911780000000007   F   F   F
  0.0294429697664071  0.5591048038797695  0.2845678933191493   T   T   T
  0.3628330000000020  0.7256670000000014  0.0947699999999969   F   F   F
  0.3660411548213887  0.7275633421781436  0.3825009034145737   T   T   T
  0.4461670000000026  0.6423330000000007  0.1911780000000007   F   F   F
  0.2794312902434299  0.5591008158907087  0.2845700178290329   T   T   T
  0.6128330000000020  0.7256670000000014  0.0947699999999969   F   F   F
  0.6112911859126626  0.7298056787623253  0.3818219187809291   T   T   T
  0.6961670000000026  0.6423330000000007  0.1911780000000007   F   F   F
  0.5304280612081698  0.5588869099893969  0.2856030479914580   T   T   T
  0.8628330000000020  0.7256670000000014  0.0947699999999969   F   F   F
  0.8679186390236282  0.7296882957418944  0.3817915480875342   T   T   T
  0.9461670000000026  0.6423330000000007  0.1911780000000007   F   F   F
  0.7781379846648662  0.5588691961007868  0.2855766463375531   T   T   T
  0.1128330000000020  0.9756670000000014  0.0947699999999969   F   F   F
  0.1089122241066178  0.9706866845285376  0.3818040942117378   T   T   T
  0.1961670000000026  0.8923330000000007  0.1911780000000007   F   F   F
  0.0297166079609070  0.8088357466378255  0.2863435305574313   T   T   T
  0.3628330000000020  0.9756670000000014  0.0947699999999969   F   F   F
  0.3613015228419059  0.9732313565578039  0.3767649305968206   T   T   T
  0.4461670000000026  0.8923330000000007  0.1911780000000007   F   F   F
  0.2794334239092038  0.8090982716479047  0.2845692355949794   T   T   T
  0.6128330000000020  0.9756670000000014  0.0947699999999969   F   F   F
  0.6111621466564614  0.9708130920670541  0.3817939658827214   T   T   T
  0.6961670000000026  0.8923330000000007  0.1911780000000007   F   F   F
  0.5288895307299342  0.8088745793737289  0.2863441036563472   T   T   T
  0.8628330000000020  0.9756670000000014  0.0947699999999969   F   F   F
  0.8626251510174541  0.9759309173428932  0.3770053972405236   T   T   T
  0.9461670000000026  0.8923330000000007  0.1911780000000007   F   F   F
  0.7792598079241415  0.8087685386038572  0.2845388783445841   T   T   T
  0.1790815430432389  0.1341338298634298  0.4361228530216721   T   T   T
  0.7045081253311309  0.6595451764844000  0.4361195430495570   T   T   T
  0.1960426995564575  0.6425382307900094  0.4350271911917716   T   T   T
  0.7040416706331882  0.1345516201362429  0.4359882170616061   T   T   T
  0.5293433254243070  0.3093341118392630  0.4413113346950510   T   T   T
 
  0.00000000E+00  0.00000000E+00  0.00000000E+00
  0.00000000E+00  0.00000000E+00  0.00000000E+00
  0.00000000E+00  0.00000000E+00  0.00000000E+00
  0.00000000E+00  0.00000000E+00  0.00000000E+00
  0.00000000E+00  0.00000000E+00  0.00000000E+00
  0.00000000E+00  0.00000000E+00  0.00000000E+00
  0.00000000E+00  0.00000000E+00  0.00000000E+00
  0.00000000E+00  0.00000000E+00  0.00000000E+00
  0.00000000E+00  0.00000000E+00  0.00000000E+00
  0.00000000E+00  0.00000000E+00  0.00000000E+00
  0.00000000E+00  0.00000000E+00  0.00000000E+00
  0.00000000E+00  0.00000000E+00  0.00000000E+00
  0.00000000E+00  0.00000000E+00  0.00000000E+00
  0.00000000E+00  0.00000000E+00  0.00000000E+00
  0.00000000E+00  0.00000000E+00  0.00000000E+00
  0.00000000E+00  0.00000000E+00  0.00000000E+00
  0.00000000E+00  0.00000000E+00  0.00000000E+00
  0.00000000E+00  0.00000000E+00  0.00000000E+00
  0.00000000E+00  0.00000000E+00  0.00000000E+00
  0.00000000E+00  0.00000000E+00  0.00000000E+00
  0.00000000E+00  0.00000000E+00  0.00000000E+00
  0.00000000E+00  0.00000000E+00  0.00000000E+00
  0.00000000E+00  0.00000000E+00  0.00000000E+00
  0.00000000E+00  0.00000000E+00  0.00000000E+00
  0.00000000E+00  0.00000000E+00  0.00000000E+00
  0.00000000E+00  0.00000000E+00  0.00000000E+00
  0.00000000E+00  0.00000000E+00  0.00000000E+00
  0.00000000E+00  0.00000000E+00  0.00000000E+00
  0.00000000E+00  0.00000000E+00  0.00000000E+00
  0.00000000E+00  0.00000000E+00  0.00000000E+00
  0.00000000E+00  0.00000000E+00  0.00000000E+00
  0.00000000E+00  0.00000000E+00  0.00000000E+00
  0.00000000E+00  0.00000000E+00  0.00000000E+00
  0.00000000E+00  0.00000000E+00  0.00000000E+00
  0.00000000E+00  0.00000000E+00  0.00000000E+00
  0.00000000E+00  0.00000000E+00  0.00000000E+00
  0.00000000E+00  0.00000000E+00  0.00000000E+00
  0.00000000E+00  0.00000000E+00  0.00000000E+00
  0.00000000E+00  0.00000000E+00  0.00000000E+00
  0.00000000E+00  0.00000000E+00  0.00000000E+00
  0.00000000E+00  0.00000000E+00  0.00000000E+00
  0.00000000E+00  0.00000000E+00  0.00000000E+00
  0.00000000E+00  0.00000000E+00  0.00000000E+00
  0.00000000E+00  0.00000000E+00  0.00000000E+00
  0.00000000E+00  0.00000000E+00  0.00000000E+00
  0.00000000E+00  0.00000000E+00  0.00000000E+00
  0.00000000E+00  0.00000000E+00  0.00000000E+00
  0.00000000E+00  0.00000000E+00  0.00000000E+00
  0.00000000E+00  0.00000000E+00  0.00000000E+00
  0.00000000E+00  0.00000000E+00  0.00000000E+00
  0.00000000E+00  0.00000000E+00  0.00000000E+00
  0.00000000E+00  0.00000000E+00  0.00000000E+00
  0.00000000E+00  0.00000000E+00  0.00000000E+00
  0.00000000E+00  0.00000000E+00  0.00000000E+00
  0.00000000E+00  0.00000000E+00  0.00000000E+00
  0.00000000E+00  0.00000000E+00  0.00000000E+00
  0.00000000E+00  0.00000000E+00  0.00000000E+00
  0.00000000E+00  0.00000000E+00  0.00000000E+00
  0.00000000E+00  0.00000000E+00  0.00000000E+00
  0.00000000E+00  0.00000000E+00  0.00000000E+00
  0.00000000E+00  0.00000000E+00  0.00000000E+00
  0.00000000E+00  0.00000000E+00  0.00000000E+00
  0.00000000E+00  0.00000000E+00  0.00000000E+00
  0.00000000E+00  0.00000000E+00  0.00000000E+00
  0.00000000E+00  0.00000000E+00  0.00000000E+00
  0.00000000E+00  0.00000000E+00  0.00000000E+00
  0.00000000E+00  0.00000000E+00  0.00000000E+00
  0.00000000E+00  0.00000000E+00  0.00000000E+00
  0.00000000E+00  0.00000000E+00  0.00000000E+00
