POSCAR
1.0
    10.10031000     0.00000000     0.00000000
    -5.05015500     8.74712505     0.00000000
     0.00000000     0.00000000    21.25380000
  Ni  Fe  O  H
  33  31  5  1
Selective
Direct
     0.99904300     0.00064200     0.19052300   F F F
     0.24849100     0.99862800     0.19205500   F F F
     0.49902500     0.00192700     0.19180600   F F F
     0.99813900     0.25067400     0.19194200   F F F
     0.24921500     0.24886200     0.19118600   F F F
     0.33441500     0.16397400     0.28677800   T T T
     0.74893500     0.25278100     0.19317500   F F F
     0.41837500     0.08394000     0.09411800   F F F
     0.41755900     0.08723600     0.38255500   T T T
     0.83358900     0.16691500     0.28932300   T T T
     0.66797000     0.08472300     0.09569300   F F F
     0.66793000     0.08807100     0.38374500   T T T
     0.99908600     0.49910800     0.19304000   F F F
     0.74816900     0.49871100     0.19204600   F F F
     0.58475200     0.41487800     0.28574100   T T T
     0.41961000     0.33337100     0.09414000   F F F
     0.41493200     0.33033500     0.38081800   T T T
     0.83066700     0.41472200     0.28796300   T T T
     0.91855900     0.33501600     0.09568700   F F F
     0.91424500     0.33196200     0.38452800   T T T
     0.99765800     0.74896900     0.19256000   F F F
     0.08141900     0.66325500     0.28817300   T T T
     0.75346500     0.75172800     0.19162900   F F F
     0.41737300     0.58352400     0.09623400   F F F
     0.41187300     0.58002400     0.38405800   T T T
     0.91550800     0.58461900     0.09542900   F F F
     0.91180500     0.58797700     0.38550100   T T T
     0.16682900     0.83490800     0.09456700   F F F
     0.16661300     0.83532100     0.37879000   T T T
     0.41715300     0.83338800     0.09679300   F F F
     0.41398000     0.83126900     0.38660400   T T T
     0.91985100     0.83263700     0.09539800   F F F
     0.92005300     0.83218900     0.38424700   T T T
     0.74918200     0.00453800     0.19311300   F F F
     0.08302200     0.16513900     0.28404400   T T T
     0.49319000     0.24544000     0.19167800   F F F
     0.17139600     0.08339300     0.09535900   F F F
     0.17745900     0.08755100     0.38192600   T T T
     0.58806200     0.16722100     0.28529900   T T T
     0.91693100     0.08581500     0.09410100   F F F
     0.91123000     0.08698000     0.38429600   T T T
     0.24596400     0.49669300     0.19369900   F F F
     0.07544500     0.41666300     0.28725900   T T T
     0.50297300     0.49962100     0.19096300   F F F
     0.34052400     0.41460200     0.28497700   T T T
     0.17081400     0.33724200     0.09550500   F F F
     0.16600300     0.33564900     0.37660100   T T T
     0.67264700     0.33598100     0.09600300   F F F
     0.66782200     0.33843400     0.37980300   T T T
     0.24490500     0.75270000     0.19343600   F F F
     0.49840300     0.74988300     0.19260700   F F F
     0.33190000     0.66119500     0.29015600   T T T
     0.16470600     0.58627100     0.09733100   F F F
     0.16916300     0.59000100     0.38817200   T T T
     0.58477000     0.66488300     0.28646200   T T T
     0.83114800     0.65858500     0.28790600   T T T
     0.66762500     0.58426200     0.09519900   F F F
     0.67014500     0.59131900     0.38653800   T T T
     0.08228200     0.91223300     0.28521900   T T T
     0.33495200     0.91483100     0.28887200   T T T
     0.58261300     0.91338700     0.28899400   T T T
     0.83191100     0.91278800     0.28915500   T T T
     0.66841400     0.83351100     0.09659800   F F F
     0.66304400     0.83144600     0.39352700   T T T
     0.01070600     0.01483000     0.43422600   T T T
     0.50109900     0.49216200     0.43753000   T T T
     0.99733500     0.49996900     0.43794100   T T T
     0.50136600     0.00752100     0.43680600   T T T
     0.66327748     0.83118676     0.47793700   T T T
     0.76375875     0.88345337     0.49790900   T T T
