POSCAR                                  
   3.54500000000000     
     2.0000000000000000    0.0000000000000000    0.0000000000000000
     0.0000000000000000    2.0000000000000000    0.0000000000000000
     0.0000000000000000    0.0000000000000000    2.0000000000000000
   Ni   Fe
    24     8
Direct
  0.9992521855406835  0.0010641307128125  0.4999943078324520
  0.0019844654710113  0.2488633921657666  0.7512475735906108
  0.9982266184677684  0.2509814690290426  0.2487652836000365
  0.9992929888075466  0.4982474156563512  0.4985024323947513
  0.9981193079095902  0.7528190185911896  0.7501561762413687
  0.2487803051272266  0.0017332301366864  0.2500709510461832
  0.2497251329672139  0.2497807386012596  0.4989099933912939
  0.5017074012519771  0.9980038343472160  0.5008459294933587
  0.4977826618049832  0.2518281964063434  0.7481570388261858
  0.7492360228129300  0.0004004276106002  0.7507248544182303
  0.0010430354402402  0.5017580327472473  0.9997638010964636
  0.9999151774102657  0.7480672119963927  0.2508862133807028
  0.2515175981324802  0.4991829298115107  0.2496514751826879
  0.2476228481826581  0.7507131028678558  0.5002356373702241
  0.4995620741091358  0.0031600142586186  0.0003385318956930
  0.5016829791523776  0.5016624574968205  0.5005254121817089
  0.5014219740747379  0.7480015362293244  0.7508620291995243
  0.7520071350109347  0.0000573530652730  0.2504365115416221
  0.7500765190953942  0.2504965560897006  0.5011960854236577
  0.7526702714308087  0.4995730955305433  0.7496424126967440
  0.2516493915882734  0.7489783563468606  0.0012396637067056
  0.7477091440469863  0.4993098351174012  0.2478318882718469
  0.7514544122417988  0.7492806462883550  0.4999844936429128
  0.7473240282182303  0.7489880347434692  0.0004510731554888
  0.2537553390947025  0.9967877471964925  0.7447015062815083
  0.9987507264803881  0.9933135873639785  0.0030817904345568
  0.2448557752146812  0.5045357797163135  0.7414793465236968
  0.2474724124393362  0.2513734959431275  0.0034850592942917
  0.5013853311156353  0.2468592319610821  0.2609597098619787
  0.5015964801675352  0.4999748378432898  0.9950859353304224
  0.4995402370669737  0.7548354711121092  0.2543558441875291
  0.7528800201254882  0.2493688330169732  0.9964310385055626
 
  0.00000000E+00  0.00000000E+00  0.00000000E+00
  0.00000000E+00  0.00000000E+00  0.00000000E+00
  0.00000000E+00  0.00000000E+00  0.00000000E+00
  0.00000000E+00  0.00000000E+00  0.00000000E+00
  0.00000000E+00  0.00000000E+00  0.00000000E+00
  0.00000000E+00  0.00000000E+00  0.00000000E+00
  0.00000000E+00  0.00000000E+00  0.00000000E+00
  0.00000000E+00  0.00000000E+00  0.00000000E+00
  0.00000000E+00  0.00000000E+00  0.00000000E+00
  0.00000000E+00  0.00000000E+00  0.00000000E+00
  0.00000000E+00  0.00000000E+00  0.00000000E+00
  0.00000000E+00  0.00000000E+00  0.00000000E+00
  0.00000000E+00  0.00000000E+00  0.00000000E+00
  0.00000000E+00  0.00000000E+00  0.00000000E+00
  0.00000000E+00  0.00000000E+00  0.00000000E+00
  0.00000000E+00  0.00000000E+00  0.00000000E+00
  0.00000000E+00  0.00000000E+00  0.00000000E+00
  0.00000000E+00  0.00000000E+00  0.00000000E+00
  0.00000000E+00  0.00000000E+00  0.00000000E+00
  0.00000000E+00  0.00000000E+00  0.00000000E+00
  0.00000000E+00  0.00000000E+00  0.00000000E+00
  0.00000000E+00  0.00000000E+00  0.00000000E+00
  0.00000000E+00  0.00000000E+00  0.00000000E+00
  0.00000000E+00  0.00000000E+00  0.00000000E+00
  0.00000000E+00  0.00000000E+00  0.00000000E+00
  0.00000000E+00  0.00000000E+00  0.00000000E+00
  0.00000000E+00  0.00000000E+00  0.00000000E+00
  0.00000000E+00  0.00000000E+00  0.00000000E+00
  0.00000000E+00  0.00000000E+00  0.00000000E+00
  0.00000000E+00  0.00000000E+00  0.00000000E+00
  0.00000000E+00  0.00000000E+00  0.00000000E+00
  0.00000000E+00  0.00000000E+00  0.00000000E+00
