POSCAR                                  
   1.00000000000000     
     9.9673800000000004    0.0000000000000000    0.0000000000000000
    -4.9836900000000002    8.6320042899999994    0.0000000000000000
     0.0000000000000000    0.0000000000000000   21.1037500000000016
   Ni   O 
    64     5
Selective dynamics
Direct
  0.1128330000000020  0.2256670000000014  0.0947699999999969   F   F   F
  0.1087846479908237  0.2273047386917071  0.3819240934921098   T   T   T
  0.1961670000000026  0.1423330000000007  0.1911780000000007   F   F   F
  0.0298403386129209  0.0593075100210356  0.2846248276711876   T   T   T
  0.3628330000000020  0.2256670000000014  0.0947699999999969   F   F   F
  0.3602337145524075  0.2247651143094700  0.3897912344554229   T   T   T
  0.4461670000000026  0.1423330000000007  0.1911780000000007   F   F   F
  0.2796554969018175  0.0605357166472942  0.2856098487181029   T   T   T
  0.6128330000000020  0.2256670000000014  0.0947699999999969   F   F   F
  0.6135852631328476  0.2249739799942532  0.3894437546756464   T   T   T
  0.6961670000000026  0.1423330000000007  0.1911780000000007   F   F   F
  0.5305248959001219  0.0605321690689919  0.2855675716937611   T   T   T
  0.8628330000000020  0.2256670000000014  0.0947699999999969   F   F   F
  0.8677445989239700  0.2274358198110136  0.3818924299337283   T   T   T
  0.9461670000000026  0.1423330000000007  0.1911780000000007   F   F   F
  0.7791847906610556  0.0593446659410972  0.2846202986464590   T   T   T
  0.1128330000000020  0.4756670000000014  0.0947699999999969   F   F   F
  0.1111364936542216  0.4727816313448443  0.3826639540062047   T   T   T
  0.1961670000000026  0.3923330000000007  0.1911780000000007   F   F   F
  0.0296617582032752  0.3096457138351809  0.2863432003039392   T   T   T
  0.3628330000000020  0.4756670000000014  0.0947699999999969   F   F   F
  0.3613629138938066  0.4772089708304108  0.3767428631813914   T   T   T
  0.4461670000000026  0.3923330000000007  0.1911780000000007   F   F   F
  0.2796233422004590  0.3079576775914461  0.2856366157427104   T   T   T
  0.6128330000000020  0.4756670000000014  0.0947699999999969   F   F   F
  0.6138391873282103  0.4783960881810998  0.3897717869541566   T   T   T
  0.6961670000000026  0.3923330000000007  0.1911780000000007   F   F   F
  0.5293581154967697  0.3091797413863731  0.2877439968673556   T   T   T
  0.8628330000000020  0.4756670000000014  0.0947699999999969   F   F   F
  0.8653319259858137  0.4772667471155501  0.3766975513761111   T   T   T
  0.9461670000000026  0.3923330000000007  0.1911780000000007   F   F   F
  0.7780052887287923  0.3080031595321557  0.2855678172746323   T   T   T
  0.1128330000000020  0.7256670000000014  0.0947699999999969   F   F   F
  0.1111623191435527  0.7274248977908044  0.3826672053991800   T   T   T
  0.1961670000000026  0.6423330000000007  0.1911780000000007   F   F   F
  0.0296943127325804  0.5592285493313298  0.2845882565933238   T   T   T
  0.3628330000000020  0.7256670000000014  0.0947699999999969   F   F   F
  0.3657989571283835  0.7274419614052405  0.3826573890533851   T   T   T
  0.4461670000000026  0.6423330000000007  0.1911780000000007   F   F   F
  0.2793080141481497  0.5592244334202618  0.2845912258709760   T   T   T
  0.6128330000000020  0.7256670000000014  0.0947699999999969   F   F   F
  0.6112755494847022  0.7297853903921947  0.3819245325333256   T   T   T
  0.6961670000000026  0.6423330000000007  0.1911780000000007   F   F   F
  0.5305692589140776  0.5589085286684394  0.2856338412855379   T   T   T
  0.8628330000000020  0.7256670000000014  0.0947699999999969   F   F   F
  0.8679196365905639  0.7296674667334671  0.3818887177008961   T   T   T
  0.9461670000000026  0.6423330000000007  0.1911780000000007   F   F   F
  0.7780088052599154  0.5588856774110056  0.2856053319140344   T   T   T
  0.1128330000000020  0.9756670000000014  0.0947699999999969   F   F   F
  0.1089316950729540  0.9706788675795508  0.3818998594830134   T   T   T
  0.1961670000000026  0.8923330000000007  0.1911780000000007   F   F   F
  0.0297179210534892  0.8088363583777891  0.2863394048946830   T   T   T
  0.3628330000000020  0.9756670000000014  0.0947699999999969   F   F   F
  0.3613079921293476  0.9732488249563431  0.3767062564862798   T   T   T
  0.4461670000000026  0.8923330000000007  0.1911780000000007   F   F   F
  0.2793101297595015  0.8088480344268376  0.2845894226601757   T   T   T
  0.6128330000000020  0.9756670000000014  0.0947699999999969   F   F   F
  0.6111309650875683  0.9708330115719619  0.3818930988088738   T   T   T
  0.6961670000000026  0.8923330000000007  0.1911780000000007   F   F   F
  0.5288854953992299  0.8088733579780438  0.2863388606765369   T   T   T
  0.8628330000000020  0.9756670000000014  0.0947699999999969   F   F   F
  0.8626192186725916  0.9759323470228267  0.3768955169781947   T   T   T
  0.9461670000000026  0.8923330000000007  0.1911780000000007   F   F   F
  0.7792216861165500  0.8086883173765074  0.2846220755297324   T   T   T
  0.1790980581911654  0.1341475964803394  0.4360393462188625   T   T   T
  0.7044904702497590  0.6595252744920188  0.4360330617165715   T   T   T
  0.1960425071658634  0.6425363134163788  0.4347502727670332   T   T   T
  0.7039898464054275  0.1346028621887712  0.4358878705872868   T   T   T
  0.5293385543772047  0.3093375127387930  0.4413542469737308   T   T   T
 
  0.00000000E+00  0.00000000E+00  0.00000000E+00
  0.00000000E+00  0.00000000E+00  0.00000000E+00
  0.00000000E+00  0.00000000E+00  0.00000000E+00
  0.00000000E+00  0.00000000E+00  0.00000000E+00
  0.00000000E+00  0.00000000E+00  0.00000000E+00
  0.00000000E+00  0.00000000E+00  0.00000000E+00
  0.00000000E+00  0.00000000E+00  0.00000000E+00
  0.00000000E+00  0.00000000E+00  0.00000000E+00
  0.00000000E+00  0.00000000E+00  0.00000000E+00
  0.00000000E+00  0.00000000E+00  0.00000000E+00
  0.00000000E+00  0.00000000E+00  0.00000000E+00
  0.00000000E+00  0.00000000E+00  0.00000000E+00
  0.00000000E+00  0.00000000E+00  0.00000000E+00
  0.00000000E+00  0.00000000E+00  0.00000000E+00
  0.00000000E+00  0.00000000E+00  0.00000000E+00
  0.00000000E+00  0.00000000E+00  0.00000000E+00
  0.00000000E+00  0.00000000E+00  0.00000000E+00
  0.00000000E+00  0.00000000E+00  0.00000000E+00
  0.00000000E+00  0.00000000E+00  0.00000000E+00
  0.00000000E+00  0.00000000E+00  0.00000000E+00
  0.00000000E+00  0.00000000E+00  0.00000000E+00
  0.00000000E+00  0.00000000E+00  0.00000000E+00
  0.00000000E+00  0.00000000E+00  0.00000000E+00
  0.00000000E+00  0.00000000E+00  0.00000000E+00
  0.00000000E+00  0.00000000E+00  0.00000000E+00
  0.00000000E+00  0.00000000E+00  0.00000000E+00
  0.00000000E+00  0.00000000E+00  0.00000000E+00
  0.00000000E+00  0.00000000E+00  0.00000000E+00
  0.00000000E+00  0.00000000E+00  0.00000000E+00
  0.00000000E+00  0.00000000E+00  0.00000000E+00
  0.00000000E+00  0.00000000E+00  0.00000000E+00
  0.00000000E+00  0.00000000E+00  0.00000000E+00
  0.00000000E+00  0.00000000E+00  0.00000000E+00
  0.00000000E+00  0.00000000E+00  0.00000000E+00
  0.00000000E+00  0.00000000E+00  0.00000000E+00
  0.00000000E+00  0.00000000E+00  0.00000000E+00
  0.00000000E+00  0.00000000E+00  0.00000000E+00
  0.00000000E+00  0.00000000E+00  0.00000000E+00
  0.00000000E+00  0.00000000E+00  0.00000000E+00
  0.00000000E+00  0.00000000E+00  0.00000000E+00
  0.00000000E+00  0.00000000E+00  0.00000000E+00
  0.00000000E+00  0.00000000E+00  0.00000000E+00
  0.00000000E+00  0.00000000E+00  0.00000000E+00
  0.00000000E+00  0.00000000E+00  0.00000000E+00
  0.00000000E+00  0.00000000E+00  0.00000000E+00
  0.00000000E+00  0.00000000E+00  0.00000000E+00
  0.00000000E+00  0.00000000E+00  0.00000000E+00
  0.00000000E+00  0.00000000E+00  0.00000000E+00
  0.00000000E+00  0.00000000E+00  0.00000000E+00
  0.00000000E+00  0.00000000E+00  0.00000000E+00
  0.00000000E+00  0.00000000E+00  0.00000000E+00
  0.00000000E+00  0.00000000E+00  0.00000000E+00
  0.00000000E+00  0.00000000E+00  0.00000000E+00
  0.00000000E+00  0.00000000E+00  0.00000000E+00
  0.00000000E+00  0.00000000E+00  0.00000000E+00
  0.00000000E+00  0.00000000E+00  0.00000000E+00
  0.00000000E+00  0.00000000E+00  0.00000000E+00
  0.00000000E+00  0.00000000E+00  0.00000000E+00
  0.00000000E+00  0.00000000E+00  0.00000000E+00
  0.00000000E+00  0.00000000E+00  0.00000000E+00
  0.00000000E+00  0.00000000E+00  0.00000000E+00
  0.00000000E+00  0.00000000E+00  0.00000000E+00
  0.00000000E+00  0.00000000E+00  0.00000000E+00
  0.00000000E+00  0.00000000E+00  0.00000000E+00
  0.00000000E+00  0.00000000E+00  0.00000000E+00
  0.00000000E+00  0.00000000E+00  0.00000000E+00
  0.00000000E+00  0.00000000E+00  0.00000000E+00
  0.00000000E+00  0.00000000E+00  0.00000000E+00
  0.00000000E+00  0.00000000E+00  0.00000000E+00
