POSCAR                                  
   1.00000000000000     
     9.9673800000000004    0.0000000000000000    0.0000000000000000
    -4.9836900000000002    8.6320042899999994    0.0000000000000000
     0.0000000000000000    0.0000000000000000   21.1037500000000016
   Ni   O    H 
    64     5     1
Selective dynamics
Direct
  0.1128330000000020  0.2256670000000014  0.0947699999999969   F   F   F
  0.1100388826326579  0.2271461894899076  0.3822411549941904   T   T   T
  0.1961670000000026  0.1423330000000007  0.1911780000000007   F   F   F
  0.0300074685713270  0.0588075281762954  0.2846977728038453   T   T   T
  0.3628330000000020  0.2256670000000014  0.0947699999999969   F   F   F
  0.3603768103204743  0.2234414762756884  0.3862100732200702   T   T   T
  0.4461670000000026  0.1423330000000007  0.1911780000000007   F   F   F
  0.2800311696230224  0.0601734711999242  0.2856383230117743   T   T   T
  0.6128330000000020  0.2256670000000014  0.0947699999999969   F   F   F
  0.6153409610840797  0.2232983450472403  0.3857981344840979   T   T   T
  0.6961670000000026  0.1423330000000007  0.1911780000000007   F   F   F
  0.5311848011023130  0.0601345637100366  0.2855750178188714   T   T   T
  0.8628330000000020  0.2256670000000014  0.0947699999999969   F   F   F
  0.8692741034303282  0.2271351260689229  0.3822325534857924   T   T   T
  0.9461670000000026  0.1423330000000007  0.1911780000000007   F   F   F
  0.7797908623371654  0.0587968070247626  0.2847065921511387   T   T   T
  0.1128330000000020  0.4756670000000014  0.0947699999999969   F   F   F
  0.1121033587081399  0.4721984896617002  0.3824200457336389   T   T   T
  0.1961670000000026  0.3923330000000007  0.1911780000000007   F   F   F
  0.0301012516185395  0.3090650697824771  0.2862431277683513   T   T   T
  0.3628330000000020  0.4756670000000014  0.0947699999999969   F   F   F
  0.3621918677452740  0.4764532743361798  0.3763132763594470   T   T   T
  0.4461670000000026  0.3923330000000007  0.1911780000000007   F   F   F
  0.2800496230674341  0.3073846549483648  0.2856427151714982   T   T   T
  0.6128330000000020  0.4756670000000014  0.0947699999999969   F   F   F
  0.6151997877193622  0.4782571288340023  0.3861941804841962   T   T   T
  0.6961670000000026  0.3923330000000007  0.1911780000000007   F   F   F
  0.5298644917757400  0.3087088608226765  0.2876029281281802   T   T   T
  0.8628330000000020  0.4756670000000014  0.0947699999999969   F   F   F
  0.8663119765879372  0.4764586129782984  0.3762561365665462   T   T   T
  0.9461670000000026  0.3923330000000007  0.1911780000000007   F   F   F
  0.7784504002942469  0.3073925179136410  0.2855765641970294   T   T   T
  0.1128330000000020  0.7256670000000014  0.0947699999999969   F   F   F
  0.1121309110146242  0.7265362118300303  0.3824128486704339   T   T   T
  0.1961670000000026  0.6423330000000007  0.1911780000000007   F   F   F
  0.0301324248051600  0.5588646041883720  0.2844149104437932   T   T   T
  0.3628330000000020  0.7256670000000014  0.0947699999999969   F   F   F
  0.3664881691971829  0.7265743500013144  0.3824134075901995   T   T   T
  0.4461670000000026  0.6423330000000007  0.1911780000000007   F   F   F
  0.2797369292463969  0.5588377950992296  0.2844409568805517   T   T   T
  0.6128330000000020  0.7256670000000014  0.0947699999999969   F   F   F
  0.6115369294424795  0.7285948924605847  0.3822440308319841   T   T   T
  0.6961670000000026  0.6423330000000007  0.1911780000000007   F   F   F
  0.5311871579851726  0.5585201874012142  0.2856407737534639   T   T   T
  0.8628330000000020  0.7256670000000014  0.0947699999999969   F   F   F
  0.8691302289757559  0.7286619858775367  0.3822747234287434   T   T   T
  0.9461670000000026  0.6423330000000007  0.1911780000000007   F   F   F
  0.7784103659123929  0.5585484506435563  0.2856385553748169   T   T   T
  0.1128330000000020  0.9756670000000014  0.0947699999999969   F   F   F
  0.1099894733069178  0.9695244598207324  0.3822738684556413   T   T   T
  0.1961670000000026  0.8923330000000007  0.1911780000000007   F   F   F
  0.0300455445226646  0.8085477406669881  0.2862341641807049   T   T   T
  0.3628330000000020  0.9756670000000014  0.0947699999999969   F   F   F
  0.3621912511217076  0.9723447968515373  0.3762534236866273   T   T   T
  0.4461670000000026  0.8923330000000007  0.1911780000000007   F   F   F
  0.2797138280169733  0.8084489762008644  0.2844139673689412   T   T   T
  0.6128330000000020  0.9756670000000014  0.0947699999999969   F   F   F
  0.6115463559366603  0.9694156219541199  0.3822369692883782   T   T   T
  0.6961670000000026  0.8923330000000007  0.1911780000000007   F   F   F
  0.5295264675688500  0.8084885307310330  0.2862345539119531   T   T   T
  0.8628330000000020  0.9756670000000014  0.0947699999999969   F   F   F
  0.8635433911334260  0.9751035855518850  0.3772864503222877   T   T   T
  0.9461670000000026  0.8923330000000007  0.1911780000000007   F   F   F
  0.7797765350361345  0.8085711569901832  0.2846972174935942   T   T   T
  0.1804341852848381  0.1334350684003169  0.4363463903462232   T   T   T
  0.7052055031198776  0.6581870821444866  0.4363365884766068   T   T   T
  0.1969677692756804  0.6418009410869701  0.4352802368258324   T   T   T
  0.7051852319239771  0.1334505901691756  0.4362533997663292   T   T   T
  0.5311283003902361  0.3076274001271884  0.4485999789660298   T   T   T
  0.5335913342443703  0.3056703256055400  0.4947325630475703   T   T   T
 
  0.00000000E+00  0.00000000E+00  0.00000000E+00
  0.00000000E+00  0.00000000E+00  0.00000000E+00
  0.00000000E+00  0.00000000E+00  0.00000000E+00
  0.00000000E+00  0.00000000E+00  0.00000000E+00
  0.00000000E+00  0.00000000E+00  0.00000000E+00
  0.00000000E+00  0.00000000E+00  0.00000000E+00
  0.00000000E+00  0.00000000E+00  0.00000000E+00
  0.00000000E+00  0.00000000E+00  0.00000000E+00
  0.00000000E+00  0.00000000E+00  0.00000000E+00
  0.00000000E+00  0.00000000E+00  0.00000000E+00
  0.00000000E+00  0.00000000E+00  0.00000000E+00
  0.00000000E+00  0.00000000E+00  0.00000000E+00
  0.00000000E+00  0.00000000E+00  0.00000000E+00
  0.00000000E+00  0.00000000E+00  0.00000000E+00
  0.00000000E+00  0.00000000E+00  0.00000000E+00
  0.00000000E+00  0.00000000E+00  0.00000000E+00
  0.00000000E+00  0.00000000E+00  0.00000000E+00
  0.00000000E+00  0.00000000E+00  0.00000000E+00
  0.00000000E+00  0.00000000E+00  0.00000000E+00
  0.00000000E+00  0.00000000E+00  0.00000000E+00
  0.00000000E+00  0.00000000E+00  0.00000000E+00
  0.00000000E+00  0.00000000E+00  0.00000000E+00
  0.00000000E+00  0.00000000E+00  0.00000000E+00
  0.00000000E+00  0.00000000E+00  0.00000000E+00
  0.00000000E+00  0.00000000E+00  0.00000000E+00
  0.00000000E+00  0.00000000E+00  0.00000000E+00
  0.00000000E+00  0.00000000E+00  0.00000000E+00
  0.00000000E+00  0.00000000E+00  0.00000000E+00
  0.00000000E+00  0.00000000E+00  0.00000000E+00
  0.00000000E+00  0.00000000E+00  0.00000000E+00
  0.00000000E+00  0.00000000E+00  0.00000000E+00
  0.00000000E+00  0.00000000E+00  0.00000000E+00
  0.00000000E+00  0.00000000E+00  0.00000000E+00
  0.00000000E+00  0.00000000E+00  0.00000000E+00
  0.00000000E+00  0.00000000E+00  0.00000000E+00
  0.00000000E+00  0.00000000E+00  0.00000000E+00
  0.00000000E+00  0.00000000E+00  0.00000000E+00
  0.00000000E+00  0.00000000E+00  0.00000000E+00
  0.00000000E+00  0.00000000E+00  0.00000000E+00
  0.00000000E+00  0.00000000E+00  0.00000000E+00
  0.00000000E+00  0.00000000E+00  0.00000000E+00
  0.00000000E+00  0.00000000E+00  0.00000000E+00
  0.00000000E+00  0.00000000E+00  0.00000000E+00
  0.00000000E+00  0.00000000E+00  0.00000000E+00
  0.00000000E+00  0.00000000E+00  0.00000000E+00
  0.00000000E+00  0.00000000E+00  0.00000000E+00
  0.00000000E+00  0.00000000E+00  0.00000000E+00
  0.00000000E+00  0.00000000E+00  0.00000000E+00
  0.00000000E+00  0.00000000E+00  0.00000000E+00
  0.00000000E+00  0.00000000E+00  0.00000000E+00
  0.00000000E+00  0.00000000E+00  0.00000000E+00
  0.00000000E+00  0.00000000E+00  0.00000000E+00
  0.00000000E+00  0.00000000E+00  0.00000000E+00
  0.00000000E+00  0.00000000E+00  0.00000000E+00
  0.00000000E+00  0.00000000E+00  0.00000000E+00
  0.00000000E+00  0.00000000E+00  0.00000000E+00
  0.00000000E+00  0.00000000E+00  0.00000000E+00
  0.00000000E+00  0.00000000E+00  0.00000000E+00
  0.00000000E+00  0.00000000E+00  0.00000000E+00
  0.00000000E+00  0.00000000E+00  0.00000000E+00
  0.00000000E+00  0.00000000E+00  0.00000000E+00
  0.00000000E+00  0.00000000E+00  0.00000000E+00
  0.00000000E+00  0.00000000E+00  0.00000000E+00
  0.00000000E+00  0.00000000E+00  0.00000000E+00
  0.00000000E+00  0.00000000E+00  0.00000000E+00
  0.00000000E+00  0.00000000E+00  0.00000000E+00
  0.00000000E+00  0.00000000E+00  0.00000000E+00
  0.00000000E+00  0.00000000E+00  0.00000000E+00
  0.00000000E+00  0.00000000E+00  0.00000000E+00
  0.00000000E+00  0.00000000E+00  0.00000000E+00
