POSCAR                                  
   1.00000000000000     
     9.9673771900000006    0.0000000000000000    0.0000000000000000
    -4.9836885899999999    8.6320018500000000    0.0000000000000000
     0.0000000000000000    0.0000000000000000   21.1037470499999991
   Ni
    64
Selective dynamics
Direct
  0.1128333300000008  0.2256666600000017  0.0947699000000028   F   F   F
  0.1128801280410485  0.2257445585871665  0.3790324932447149   T   T   T
  0.1961666600000029  0.1423333199999988  0.1911784799999978   F   F   F
  0.0295641699685447  0.0591440558532099  0.2848030935582102   T   T   T
  0.3628333300000008  0.2256666600000017  0.0947699000000028   F   F   F
  0.3628769566753363  0.2257154337248082  0.3790341408717168   T   T   T
  0.4461666600000029  0.1423333199999988  0.1911784799999978   F   F   F
  0.2795790117592531  0.0591409697591914  0.2847881816291533   T   T   T
  0.6128333300000008  0.2256666600000017  0.0947699000000028   F   F   F
  0.6128482636268018  0.2257137186311553  0.3790283508135204   T   T   T
  0.6961666600000029  0.1423333199999988  0.1911784799999978   F   F   F
  0.5295896473373531  0.0591560407614438  0.2847838990529326   T   T   T
  0.8628333300000008  0.2256666600000017  0.0947699000000028   F   F   F
  0.8628325078725396  0.2257148341872437  0.3790394298059567   T   T   T
  0.9461666600000029  0.1423333199999988  0.1911784799999978   F   F   F
  0.7795750645094728  0.0591552285050838  0.2847869607669651   T   T   T
  0.1128333300000008  0.4756666600000017  0.0947699000000028   F   F   F
  0.1128991956359187  0.4757485604989995  0.3790367056220063   T   T   T
  0.1961666600000029  0.3923333199999988  0.1911784799999978   F   F   F
  0.0295390163810154  0.3091250451230323  0.2847955441000636   T   T   T
  0.3628333300000008  0.4756666600000017  0.0947699000000028   F   F   F
  0.3628437523596233  0.4757566403325839  0.3790355436398940   T   T   T
  0.4461666600000029  0.3923333199999988  0.1911784799999978   F   F   F
  0.2795578112484378  0.3091315593756150  0.2847973087200231   T   T   T
  0.6128333300000008  0.4756666600000017  0.0947699000000028   F   F   F
  0.6128247976030465  0.4757204870860789  0.3790315706000555   T   T   T
  0.6961666600000029  0.3923333199999988  0.1911784799999978   F   F   F
  0.5295931469044817  0.3091374149612278  0.2847908396117802   T   T   T
  0.8628333300000008  0.4756666600000017  0.0947699000000028   F   F   F
  0.8629071419630421  0.4757122576079951  0.3790316160713019   T   T   T
  0.9461666600000029  0.3923333199999988  0.1911784799999978   F   F   F
  0.7795681188844696  0.3091357260425482  0.2847866733859377   T   T   T
  0.1128333300000008  0.7256666600000017  0.0947699000000028   F   F   F
  0.1129067698714366  0.7257400914776042  0.3790362173815041   T   T   T
  0.1961666600000029  0.6423333199999988  0.1911784799999978   F   F   F
  0.0295423117097116  0.5591217580801242  0.2847923185612018   T   T   T
  0.3628333300000008  0.7256666600000017  0.0947699000000028   F   F   F
  0.3628854176652467  0.7257444978626353  0.3790444044382895   T   T   T
  0.4461666600000029  0.6423333199999988  0.1911784799999978   F   F   F
  0.2795446181462893  0.5591232714096606  0.2847949817063906   T   T   T
  0.6128333300000008  0.7256666600000017  0.0947699000000028   F   F   F
  0.6128303341956709  0.7257402981230783  0.3790389078152003   T   T   T
  0.6961666600000029  0.6423333199999988  0.1911784799999978   F   F   F
  0.5295803818919964  0.5591283762899906  0.2847954700844326   T   T   T
  0.8628333300000008  0.7256666600000017  0.0947699000000028   F   F   F
  0.8628403442210200  0.7257223175869640  0.3790251457168239   T   T   T
  0.9461666600000029  0.6423333199999988  0.1911784799999978   F   F   F
  0.7795779388976811  0.5591253213660039  0.2847957978764413   T   T   T
  0.1128333300000008  0.9756666600000017  0.0947699000000028   F   F   F
  0.1129003454211599  0.9757388593420444  0.3790410202149701   T   T   T
  0.1961666600000029  0.8923333199999988  0.1911784799999978   F   F   F
  0.0295734683200308  0.8091436137147099  0.2848010855358538   T   T   T
  0.3628333300000008  0.9756666600000017  0.0947699000000028   F   F   F
  0.3628816710215830  0.9757228642585929  0.3790312809273431   T   T   T
  0.4461666600000029  0.8923333199999988  0.1911784799999978   F   F   F
  0.2795630498006005  0.8091350199558747  0.2847938158203647   T   T   T
  0.6128333300000008  0.9756666600000017  0.0947699000000028   F   F   F
  0.6128519169664415  0.9757205477226378  0.3790298666473575   T   T   T
  0.6961666600000029  0.8923333199999988  0.1911784799999978   F   F   F
  0.5295726875793463  0.8091457475733250  0.2847925262303121   T   T   T
  0.8628333300000008  0.9756666600000017  0.0947699000000028   F   F   F
  0.8628303124471373  0.9757460744791828  0.3790435095660385   T   T   T
  0.9461666600000029  0.8923333199999988  0.1911784799999978   F   F   F
  0.7795815043929935  0.8091630418988061  0.2847989373442061   T   T   T
 
  0.00000000E+00  0.00000000E+00  0.00000000E+00
  0.00000000E+00  0.00000000E+00  0.00000000E+00
  0.00000000E+00  0.00000000E+00  0.00000000E+00
  0.00000000E+00  0.00000000E+00  0.00000000E+00
  0.00000000E+00  0.00000000E+00  0.00000000E+00
  0.00000000E+00  0.00000000E+00  0.00000000E+00
  0.00000000E+00  0.00000000E+00  0.00000000E+00
  0.00000000E+00  0.00000000E+00  0.00000000E+00
  0.00000000E+00  0.00000000E+00  0.00000000E+00
  0.00000000E+00  0.00000000E+00  0.00000000E+00
  0.00000000E+00  0.00000000E+00  0.00000000E+00
  0.00000000E+00  0.00000000E+00  0.00000000E+00
  0.00000000E+00  0.00000000E+00  0.00000000E+00
  0.00000000E+00  0.00000000E+00  0.00000000E+00
  0.00000000E+00  0.00000000E+00  0.00000000E+00
  0.00000000E+00  0.00000000E+00  0.00000000E+00
  0.00000000E+00  0.00000000E+00  0.00000000E+00
  0.00000000E+00  0.00000000E+00  0.00000000E+00
  0.00000000E+00  0.00000000E+00  0.00000000E+00
  0.00000000E+00  0.00000000E+00  0.00000000E+00
  0.00000000E+00  0.00000000E+00  0.00000000E+00
  0.00000000E+00  0.00000000E+00  0.00000000E+00
  0.00000000E+00  0.00000000E+00  0.00000000E+00
  0.00000000E+00  0.00000000E+00  0.00000000E+00
  0.00000000E+00  0.00000000E+00  0.00000000E+00
  0.00000000E+00  0.00000000E+00  0.00000000E+00
  0.00000000E+00  0.00000000E+00  0.00000000E+00
  0.00000000E+00  0.00000000E+00  0.00000000E+00
  0.00000000E+00  0.00000000E+00  0.00000000E+00
  0.00000000E+00  0.00000000E+00  0.00000000E+00
  0.00000000E+00  0.00000000E+00  0.00000000E+00
  0.00000000E+00  0.00000000E+00  0.00000000E+00
  0.00000000E+00  0.00000000E+00  0.00000000E+00
  0.00000000E+00  0.00000000E+00  0.00000000E+00
  0.00000000E+00  0.00000000E+00  0.00000000E+00
  0.00000000E+00  0.00000000E+00  0.00000000E+00
  0.00000000E+00  0.00000000E+00  0.00000000E+00
  0.00000000E+00  0.00000000E+00  0.00000000E+00
  0.00000000E+00  0.00000000E+00  0.00000000E+00
  0.00000000E+00  0.00000000E+00  0.00000000E+00
  0.00000000E+00  0.00000000E+00  0.00000000E+00
  0.00000000E+00  0.00000000E+00  0.00000000E+00
  0.00000000E+00  0.00000000E+00  0.00000000E+00
  0.00000000E+00  0.00000000E+00  0.00000000E+00
  0.00000000E+00  0.00000000E+00  0.00000000E+00
  0.00000000E+00  0.00000000E+00  0.00000000E+00
  0.00000000E+00  0.00000000E+00  0.00000000E+00
  0.00000000E+00  0.00000000E+00  0.00000000E+00
  0.00000000E+00  0.00000000E+00  0.00000000E+00
  0.00000000E+00  0.00000000E+00  0.00000000E+00
  0.00000000E+00  0.00000000E+00  0.00000000E+00
  0.00000000E+00  0.00000000E+00  0.00000000E+00
  0.00000000E+00  0.00000000E+00  0.00000000E+00
  0.00000000E+00  0.00000000E+00  0.00000000E+00
  0.00000000E+00  0.00000000E+00  0.00000000E+00
  0.00000000E+00  0.00000000E+00  0.00000000E+00
  0.00000000E+00  0.00000000E+00  0.00000000E+00
  0.00000000E+00  0.00000000E+00  0.00000000E+00
  0.00000000E+00  0.00000000E+00  0.00000000E+00
  0.00000000E+00  0.00000000E+00  0.00000000E+00
  0.00000000E+00  0.00000000E+00  0.00000000E+00
  0.00000000E+00  0.00000000E+00  0.00000000E+00
  0.00000000E+00  0.00000000E+00  0.00000000E+00
  0.00000000E+00  0.00000000E+00  0.00000000E+00
