POSCAR                                  
   3.57500000000000     
     2.0000000000000000   -2.0000000000000000    0.0000000000000000
     0.0000000000000000    2.0000000000000000   -2.0000000000000000
     1.0000000000000000    1.0000000000000000    1.0000000000000000
   Fe   Ni
    36    12
Direct
  0.0019471797249746  0.9992003381002050  0.0043364524303062
  0.4988060528636545  0.9964761713733534  0.0019868094842305
  0.7431601071099915  0.9964588162932597  0.9960979616326150
  0.2491363576796179  0.2532258075105696  0.0042713744262567
  0.0887319798526776  0.1614936880138134  0.3263584687806971
  0.3296263944556712  0.1660984548994461  0.3417143851663043
  0.1676628373041903  0.0809437992308946  0.6591429946033589
  0.5833304464296472  0.1655034061797585  0.3395654785005645
  0.4220781554930635  0.0874250219243031  0.6585879101277843
  0.8265145556526651  0.1665099490614965  0.3355323412724233
  0.6673760846283373  0.0832770661726917  0.6656768670032566
  0.0032082313495591  0.5109094377196202  0.9963815994955806
  0.2558689337271278  0.5057769123541421  0.0061117705003546
  0.4996015772914351  0.5030491831860034  0.0067799237130375
  0.3385991402744867  0.4158368871885033  0.3222429456263917
  0.7567910967910436  0.5080430549999981  0.0025498079079063
  0.5863358724337548  0.4222937662991936  0.3388741654885895
  0.4203278973734055  0.3267175340420725  0.6610103144263636
  0.8267708251172960  0.4167617854197652  0.3311781932912449
  0.6624930690977617  0.3354242231240381  0.6559615742554059
  0.9918058183542861  0.7470283397262018  0.0005023200033095
  0.2510459799032732  0.7456393352156060  0.0050469793275292
  0.0860463910984944  0.6708685822616632  0.3318898592433926
  0.5015374711506199  0.7490567812594878  0.0067379978985406
  0.3300588138496685  0.6613564078438154  0.3249661594777963
  0.1640704653895518  0.5890424647398836  0.6724333862645090
  0.7477748699774327  0.7486311356103961  0.9947734282827648
  0.5800823253990952  0.6609625364443479  0.3295720977283038
  0.8321373033391097  0.6619949514729264  0.3347509341720941
  0.6721440722325468  0.5852943450562395  0.6640141450345411
  0.9190754439437415  0.5873311509298648  0.6700081341594524
  0.0860363945856543  0.9163552030320604  0.3370749240820222
  0.3274298120974466  0.9193221139020756  0.3344116585179052
  0.1627425722886352  0.8315355873956723  0.6584000592179790
  0.6687826192915886  0.8308298261118143  0.6755897124467583
  0.9185229699336701  0.8270597587503645  0.6705318330524216
  0.2491651737689310  0.9981312834640502  0.0001084077079962
  0.0012971140087808  0.2497420577373695  0.0034998557597294
  0.4993307719639728  0.2516266837878104  0.9993328535186644
  0.7494416819235420  0.2507134878233417  0.0005625039974542
  0.9142415011984227  0.0792936330124546  0.6663630455756426
  0.0826082073645470  0.4170799030956728  0.3320647903256504
  0.1707725871895493  0.3343713798465483  0.6666168119550285
  0.9156704250255929  0.3364637054656292  0.6649675934228748
  0.4192360909034115  0.5847146166580844  0.6676999862617047
  0.5819067614490729  0.9152692754858909  0.3326133020235573
  0.4146702570636222  0.8342889162354874  0.6685229544274626
  0.8339993106553434  0.9145712345420913  0.3325829279822501
 
  0.00000000E+00  0.00000000E+00  0.00000000E+00
  0.00000000E+00  0.00000000E+00  0.00000000E+00
  0.00000000E+00  0.00000000E+00  0.00000000E+00
  0.00000000E+00  0.00000000E+00  0.00000000E+00
  0.00000000E+00  0.00000000E+00  0.00000000E+00
  0.00000000E+00  0.00000000E+00  0.00000000E+00
  0.00000000E+00  0.00000000E+00  0.00000000E+00
  0.00000000E+00  0.00000000E+00  0.00000000E+00
  0.00000000E+00  0.00000000E+00  0.00000000E+00
  0.00000000E+00  0.00000000E+00  0.00000000E+00
  0.00000000E+00  0.00000000E+00  0.00000000E+00
  0.00000000E+00  0.00000000E+00  0.00000000E+00
  0.00000000E+00  0.00000000E+00  0.00000000E+00
  0.00000000E+00  0.00000000E+00  0.00000000E+00
  0.00000000E+00  0.00000000E+00  0.00000000E+00
  0.00000000E+00  0.00000000E+00  0.00000000E+00
  0.00000000E+00  0.00000000E+00  0.00000000E+00
  0.00000000E+00  0.00000000E+00  0.00000000E+00
  0.00000000E+00  0.00000000E+00  0.00000000E+00
  0.00000000E+00  0.00000000E+00  0.00000000E+00
  0.00000000E+00  0.00000000E+00  0.00000000E+00
  0.00000000E+00  0.00000000E+00  0.00000000E+00
  0.00000000E+00  0.00000000E+00  0.00000000E+00
  0.00000000E+00  0.00000000E+00  0.00000000E+00
  0.00000000E+00  0.00000000E+00  0.00000000E+00
  0.00000000E+00  0.00000000E+00  0.00000000E+00
  0.00000000E+00  0.00000000E+00  0.00000000E+00
  0.00000000E+00  0.00000000E+00  0.00000000E+00
  0.00000000E+00  0.00000000E+00  0.00000000E+00
  0.00000000E+00  0.00000000E+00  0.00000000E+00
  0.00000000E+00  0.00000000E+00  0.00000000E+00
  0.00000000E+00  0.00000000E+00  0.00000000E+00
  0.00000000E+00  0.00000000E+00  0.00000000E+00
  0.00000000E+00  0.00000000E+00  0.00000000E+00
  0.00000000E+00  0.00000000E+00  0.00000000E+00
  0.00000000E+00  0.00000000E+00  0.00000000E+00
  0.00000000E+00  0.00000000E+00  0.00000000E+00
  0.00000000E+00  0.00000000E+00  0.00000000E+00
  0.00000000E+00  0.00000000E+00  0.00000000E+00
  0.00000000E+00  0.00000000E+00  0.00000000E+00
  0.00000000E+00  0.00000000E+00  0.00000000E+00
  0.00000000E+00  0.00000000E+00  0.00000000E+00
  0.00000000E+00  0.00000000E+00  0.00000000E+00
  0.00000000E+00  0.00000000E+00  0.00000000E+00
  0.00000000E+00  0.00000000E+00  0.00000000E+00
  0.00000000E+00  0.00000000E+00  0.00000000E+00
  0.00000000E+00  0.00000000E+00  0.00000000E+00
  0.00000000E+00  0.00000000E+00  0.00000000E+00
