POSCAR                                  
   3.57500000000000     
     2.0000000000000000    0.0000000000000000    0.0000000000000000
     0.0000000000000000    2.0000000000000000    0.0000000000000000
     0.0000000000000000    0.0000000000000000    2.0000000000000000
   Ni   Fe
     8    24
Direct
  0.9988508061551348  0.0000540474613825  0.5008418077093600
  0.0023690356674959  0.2517872627735496  0.7490104526878977
  0.2496420269531048 -0.0000490191995704  0.7497030658083764
 -0.0000949276536235  0.4995412876379776  0.4985424895864624
  0.9978916623372371  0.7510556351906449  0.7450767694056627
  0.2501624960500137  0.4990553364180725  0.2534341148708462
  0.7560539706901184  0.2503130146617516  0.5002744484382994
  0.7547451181554385  0.2499152687509404 -0.0010853413509248
  0.9988826752415372  0.0008816511878179 -0.0047577396680233
  0.0049012056833417  0.2478084792144640  0.2508189636780407
  0.2467604810025388  0.9973388636653534  0.2526755454577118
  0.2427710912414721  0.2488510845007806  0.4990145891149362
  0.2468965716690440  0.5041576230940161  0.7454785764436896
  0.5029656915546710  0.0011022805081255  0.5031620508712858
  0.4982372426228898  0.2515851965722180  0.7509568832414398
  0.7513472898439183  0.0033521370846765  0.7469988027220803
 -0.0006567109510162  0.4970564355493815  0.0008116653825803
 -0.0006971889003751  0.7467027714178299  0.2527155617277969
  0.2449802642096032  0.2503706352861321  0.0020314645362508
  0.2492970349993111  0.7543190918668694  0.5016075136192593
  0.4987786547373240  0.9974535299437229 -0.0026009537658001
  0.5039252517131390  0.2456532785717841  0.2498066476262315
  0.5009674010195246  0.5002393907183668  0.4984396978649108
  0.4964373550761446  0.7533968307946183  0.7474863067411934
  0.7570833822976281  0.0020253271980388  0.2532914811061119
  0.7552454093152274  0.4996582352766011  0.7457974074025306
  0.2497475840932253  0.7497869629790628 -0.0010608276901126
  0.4970294847982485  0.5031297486200282  0.0042208133756873
  0.4977452840092804  0.7497147702592337  0.2534633184882887
  0.7522870008947656  0.4935536642450635  0.2530659818372750
  0.7478435191352800  0.7504712920613918  0.5007924196259124
  0.7476038363383859  0.7497178856896601 -0.0000139768952647
 
  0.00000000E+00  0.00000000E+00  0.00000000E+00
  0.00000000E+00  0.00000000E+00  0.00000000E+00
  0.00000000E+00  0.00000000E+00  0.00000000E+00
  0.00000000E+00  0.00000000E+00  0.00000000E+00
  0.00000000E+00  0.00000000E+00  0.00000000E+00
  0.00000000E+00  0.00000000E+00  0.00000000E+00
  0.00000000E+00  0.00000000E+00  0.00000000E+00
  0.00000000E+00  0.00000000E+00  0.00000000E+00
  0.00000000E+00  0.00000000E+00  0.00000000E+00
  0.00000000E+00  0.00000000E+00  0.00000000E+00
  0.00000000E+00  0.00000000E+00  0.00000000E+00
  0.00000000E+00  0.00000000E+00  0.00000000E+00
  0.00000000E+00  0.00000000E+00  0.00000000E+00
  0.00000000E+00  0.00000000E+00  0.00000000E+00
  0.00000000E+00  0.00000000E+00  0.00000000E+00
  0.00000000E+00  0.00000000E+00  0.00000000E+00
  0.00000000E+00  0.00000000E+00  0.00000000E+00
  0.00000000E+00  0.00000000E+00  0.00000000E+00
  0.00000000E+00  0.00000000E+00  0.00000000E+00
  0.00000000E+00  0.00000000E+00  0.00000000E+00
  0.00000000E+00  0.00000000E+00  0.00000000E+00
  0.00000000E+00  0.00000000E+00  0.00000000E+00
  0.00000000E+00  0.00000000E+00  0.00000000E+00
  0.00000000E+00  0.00000000E+00  0.00000000E+00
  0.00000000E+00  0.00000000E+00  0.00000000E+00
  0.00000000E+00  0.00000000E+00  0.00000000E+00
  0.00000000E+00  0.00000000E+00  0.00000000E+00
  0.00000000E+00  0.00000000E+00  0.00000000E+00
  0.00000000E+00  0.00000000E+00  0.00000000E+00
  0.00000000E+00  0.00000000E+00  0.00000000E+00
  0.00000000E+00  0.00000000E+00  0.00000000E+00
  0.00000000E+00  0.00000000E+00  0.00000000E+00
