POSCAR                                  
   1.00000000000000     
     9.9295000000000009    0.0000000000000000    0.0000000000000000
     3.3098332300000002    9.3616224199999998    0.0000000000000000
     0.0000000000000000    0.0000000000000000   21.0805499999999988
   Fe   O 
    64     5
Selective dynamics
Direct
  0.0873890000000017  0.1626109999999983  0.0948739999999972   F   F   F
  0.0893520153402645  0.1615855316967858  0.2848320641727216   F   F   F
  0.2123890000000017  0.0376109999999983  0.1910219999999967   F   F   F
  0.2138218995934457  0.0337163039519021  0.3755728024035059   F   F   F
  0.3373890000000017  0.1626109999999983  0.0948739999999972   F   F   F
  0.3393843692486520  0.1636393964919690  0.2848414404843425   F   F   F
  0.4623890000000017  0.0376109999999983  0.1910219999999967   F   F   F
  0.4647258141125335  0.0450875160043416  0.3798949059961858   F   F   F
  0.5873890000000017  0.1626109999999983  0.0948739999999972   F   F   F
  0.5896728397114588  0.1613248673722234  0.2860242672726858   F   F   F
  0.7123890000000017  0.0376109999999983  0.1910219999999967   F   F   F
  0.7161126477516476  0.0268224730218846  0.3776338588432766   F   F   F
  0.8373890000000017  0.1626109999999983  0.0948739999999972   F   F   F
  0.8394257861686926  0.1610181089097069  0.2845021773407181   F   F   F
  0.9623890000000017  0.0376109999999983  0.1910219999999967   F   F   F
  0.9688252567611592  0.0327948344860487  0.3785559016966322   F   F   F
  0.0873890000000017  0.4126109999999983  0.0948739999999972   F   F   F
  0.0867210754081140  0.4118652372395145  0.2852754681318705   F   F   F
  0.2123890000000017  0.2876109999999983  0.1910219999999967   F   F   F
  0.2120294468356940  0.2880030597411642  0.3797776350107643   F   F   F
  0.3373890000000017  0.4126109999999983  0.0948739999999972   F   F   F
  0.3350187335856152  0.4155127234519535  0.2851487739577853   F   F   F
  0.4623890000000017  0.2876109999999983  0.1910219999999967   F   F   F
  0.4609014820387449  0.2988470030458893  0.3804231681904522   F   F   F
  0.5873890000000017  0.4126109999999983  0.0948739999999972   F   F   F
  0.5860759404100946  0.4119107783946497  0.2865017052674729   F   F   F
  0.7123890000000017  0.2876109999999983  0.1910219999999967   F   F   F
  0.7193766344762577  0.2835480229137282  0.3808611973958206   F   F   F
  0.8373890000000017  0.4126109999999983  0.0948739999999972   F   F   F
  0.8365651604112144  0.4113520543439260  0.2852132148031147   F   F   F
  0.9623890000000017  0.2876109999999983  0.1910219999999967   F   F   F
  0.9676933582774434  0.2842855216060178  0.3758721513429261   F   F   F
  0.0873890000000017  0.6626109999999983  0.0948739999999972   F   F   F
  0.0875733906570504  0.6608452609018693  0.2838603346432488   F   F   F
  0.2123890000000017  0.5376109999999983  0.1910219999999967   F   F   F
  0.1987615527738864  0.5370543866980165  0.3768881447751444   F   F   F
  0.3373890000000017  0.6626109999999983  0.0948739999999972   F   F   F
  0.3366997394453758  0.6621157254648303  0.2822323089316106   F   F   F
  0.4623890000000017  0.5376109999999983  0.1910219999999967   F   F   F
  0.4483983068945472  0.5613954532879306  0.3842577389831844   F   F   F
  0.5873890000000017  0.6626109999999983  0.0948739999999972   F   F   F
  0.5874003214145579  0.6588012258871520  0.2851335847080746   F   F   F
  0.7123890000000017  0.5376109999999983  0.1910219999999967   F   F   F
  0.7049308659107238  0.5327374835117679  0.3786091589661548   F   F   F
  0.8373890000000017  0.6626109999999983  0.0948739999999972   F   F   F
  0.8365861731921719  0.6615925913191855  0.2842652064792159   F   F   F
  0.9623890000000017  0.5376109999999983  0.1910219999999967   F   F   F
  0.9602781327585671  0.5329251334597452  0.3794022032441044   F   F   F
  0.0873890000000017  0.9126109999999983  0.0948739999999972   F   F   F
  0.0892213339046630  0.9111455108717144  0.2850912221320360   F   F   F
  0.2123890000000017  0.7876109999999983  0.1910219999999967   F   F   F
  0.2253173724881027  0.7867708039172863  0.3802383323068126   F   F   F
  0.3373890000000017  0.9126109999999983  0.0948739999999972   F   F   F
  0.3348377782027374  0.9145657666723512  0.2828919785876808   F   F   F
  0.4623890000000017  0.7876109999999983  0.1910219999999967   F   F   F
  0.4590421524294276  0.7988173903379068  0.3729223777402196   F   F   F
  0.5873890000000017  0.9126109999999983  0.0948739999999972   F   F   F
  0.5867665163406289  0.9115236364557248  0.2864367522165032   F   F   F
  0.7123890000000017  0.7876109999999983  0.1910219999999967   F   F   F
  0.7155345828802141  0.7844037262358792  0.3793829497577740   F   F   F
  0.8373890000000017  0.9126109999999983  0.0948739999999972   F   F   F
  0.8372662451261071  0.9115378602133560  0.2840321367368613   F   F   F
  0.9623890000000017  0.7876109999999983  0.1910219999999967   F   F   F
  0.9647445226895583  0.7873025993782081  0.3727892165816057   F   F   F
  0.3690017190999494  0.1998569257801342  0.4314837090070788   F   F   F
  0.8115581428220054  0.1170290668183474  0.4298606430891147   F   F   F
  0.8019463826044483  0.6241446700583687  0.4307853950555022   F   F   F
  0.2771329571771776  0.6299105057450324  0.4331710778349242   F   F   F
  0.5615724507512386  0.3944187065429658  0.4274055480332865   T   T   T
 
  0.00000000E+00  0.00000000E+00  0.00000000E+00
  0.00000000E+00  0.00000000E+00  0.00000000E+00
  0.00000000E+00  0.00000000E+00  0.00000000E+00
  0.00000000E+00  0.00000000E+00  0.00000000E+00
  0.00000000E+00  0.00000000E+00  0.00000000E+00
  0.00000000E+00  0.00000000E+00  0.00000000E+00
  0.00000000E+00  0.00000000E+00  0.00000000E+00
  0.00000000E+00  0.00000000E+00  0.00000000E+00
  0.00000000E+00  0.00000000E+00  0.00000000E+00
  0.00000000E+00  0.00000000E+00  0.00000000E+00
  0.00000000E+00  0.00000000E+00  0.00000000E+00
  0.00000000E+00  0.00000000E+00  0.00000000E+00
  0.00000000E+00  0.00000000E+00  0.00000000E+00
  0.00000000E+00  0.00000000E+00  0.00000000E+00
  0.00000000E+00  0.00000000E+00  0.00000000E+00
  0.00000000E+00  0.00000000E+00  0.00000000E+00
  0.00000000E+00  0.00000000E+00  0.00000000E+00
  0.00000000E+00  0.00000000E+00  0.00000000E+00
  0.00000000E+00  0.00000000E+00  0.00000000E+00
  0.00000000E+00  0.00000000E+00  0.00000000E+00
  0.00000000E+00  0.00000000E+00  0.00000000E+00
  0.00000000E+00  0.00000000E+00  0.00000000E+00
  0.00000000E+00  0.00000000E+00  0.00000000E+00
  0.00000000E+00  0.00000000E+00  0.00000000E+00
  0.00000000E+00  0.00000000E+00  0.00000000E+00
  0.00000000E+00  0.00000000E+00  0.00000000E+00
  0.00000000E+00  0.00000000E+00  0.00000000E+00
  0.00000000E+00  0.00000000E+00  0.00000000E+00
  0.00000000E+00  0.00000000E+00  0.00000000E+00
  0.00000000E+00  0.00000000E+00  0.00000000E+00
  0.00000000E+00  0.00000000E+00  0.00000000E+00
  0.00000000E+00  0.00000000E+00  0.00000000E+00
  0.00000000E+00  0.00000000E+00  0.00000000E+00
  0.00000000E+00  0.00000000E+00  0.00000000E+00
  0.00000000E+00  0.00000000E+00  0.00000000E+00
  0.00000000E+00  0.00000000E+00  0.00000000E+00
  0.00000000E+00  0.00000000E+00  0.00000000E+00
  0.00000000E+00  0.00000000E+00  0.00000000E+00
  0.00000000E+00  0.00000000E+00  0.00000000E+00
  0.00000000E+00  0.00000000E+00  0.00000000E+00
  0.00000000E+00  0.00000000E+00  0.00000000E+00
  0.00000000E+00  0.00000000E+00  0.00000000E+00
  0.00000000E+00  0.00000000E+00  0.00000000E+00
  0.00000000E+00  0.00000000E+00  0.00000000E+00
  0.00000000E+00  0.00000000E+00  0.00000000E+00
  0.00000000E+00  0.00000000E+00  0.00000000E+00
  0.00000000E+00  0.00000000E+00  0.00000000E+00
  0.00000000E+00  0.00000000E+00  0.00000000E+00
  0.00000000E+00  0.00000000E+00  0.00000000E+00
  0.00000000E+00  0.00000000E+00  0.00000000E+00
  0.00000000E+00  0.00000000E+00  0.00000000E+00
  0.00000000E+00  0.00000000E+00  0.00000000E+00
  0.00000000E+00  0.00000000E+00  0.00000000E+00
  0.00000000E+00  0.00000000E+00  0.00000000E+00
  0.00000000E+00  0.00000000E+00  0.00000000E+00
  0.00000000E+00  0.00000000E+00  0.00000000E+00
  0.00000000E+00  0.00000000E+00  0.00000000E+00
  0.00000000E+00  0.00000000E+00  0.00000000E+00
  0.00000000E+00  0.00000000E+00  0.00000000E+00
  0.00000000E+00  0.00000000E+00  0.00000000E+00
  0.00000000E+00  0.00000000E+00  0.00000000E+00
  0.00000000E+00  0.00000000E+00  0.00000000E+00
  0.00000000E+00  0.00000000E+00  0.00000000E+00
  0.00000000E+00  0.00000000E+00  0.00000000E+00
  0.00000000E+00  0.00000000E+00  0.00000000E+00
  0.00000000E+00  0.00000000E+00  0.00000000E+00
  0.00000000E+00  0.00000000E+00  0.00000000E+00
  0.00000000E+00  0.00000000E+00  0.00000000E+00
  0.00000000E+00  0.00000000E+00  0.00000000E+00
