POSCAR
1.0
    10.10031000     0.00000000     0.00000000
    -5.05015500     8.74712505     0.00000000
     0.00000000     0.00000000    21.25380000
  Ni  Fe  O
  33  31  4
Selective
Direct
     0.99904300     0.00064200     0.19052300   F F F
     0.24849100     0.99862800     0.19205500   F F F
     0.49902500     0.00192700     0.19180600   F F F
     0.99813900     0.25067400     0.19194200   F F F
     0.24921500     0.24886200     0.19118600   F F F
     0.33461400     0.16487500     0.28793000   T T T
     0.74893500     0.25278100     0.19317500   F F F
     0.41837500     0.08394000     0.09411800   F F F
     0.41754000     0.08331100     0.38287500   T T T
     0.83382200     0.16668300     0.29034900   T T T
     0.66797000     0.08472300     0.09569300   F F F
     0.66707600     0.08445300     0.38451700   T T T
     0.99908600     0.49910800     0.19304000   F F F
     0.74816900     0.49871100     0.19204600   F F F
     0.58535500     0.41398000     0.28893400   T T T
     0.41961000     0.33337100     0.09414000   F F F
     0.41749300     0.33216500     0.38216800   T T T
     0.83014900     0.41388700     0.29025000   T T T
     0.91855900     0.33501600     0.09568700   F F F
     0.91879500     0.33562800     0.38364000   T T T
     0.99765800     0.74896900     0.19256000   F F F
     0.08090700     0.66389100     0.28934200   T T T
     0.75346500     0.75172800     0.19162900   F F F
     0.41737300     0.58352400     0.09623400   F F F
     0.41463500     0.58132200     0.38583600   T T T
     0.91550800     0.58461900     0.09542900   F F F
     0.91210500     0.58476500     0.38361300   T T T
     0.16682900     0.83490800     0.09456700   F F F
     0.16424900     0.83647300     0.38333400   T T T
     0.41715300     0.83338800     0.09679300   F F F
     0.41451900     0.83572800     0.38582400   T T T
     0.91985100     0.83263700     0.09539800   F F F
     0.91651700     0.83291500     0.38366800   T T T
     0.74918200     0.00453800     0.19311300   F F F
     0.08496400     0.16874000     0.28606000   T T T
     0.49319000     0.24544000     0.19167800   F F F
     0.17139600     0.08339300     0.09535900   F F F
     0.16880400     0.08477600     0.38357300   T T T
     0.58771400     0.16939000     0.28915900   T T T
     0.91693100     0.08581500     0.09410100   F F F
     0.91618200     0.08615500     0.38458100   T T T
     0.24596400     0.49669300     0.19369900   F F F
     0.07663600     0.41615000     0.29017800   T T T
     0.50297300     0.49962100     0.19096300   F F F
     0.33999600     0.41544500     0.28918300   T T T
     0.17081400     0.33724200     0.09550500   F F F
     0.16860400     0.33418900     0.38686600   T T T
     0.67264700     0.33598100     0.09600300   F F F
     0.66992900     0.33520300     0.38720900   T T T
     0.24490500     0.75270000     0.19343600   F F F
     0.49840300     0.74988300     0.19260700   F F F
     0.33264600     0.66330600     0.29254200   T T T
     0.16470600     0.58627100     0.09733100   F F F
     0.16464600     0.58900600     0.38723100   T T T
     0.58771000     0.66803000     0.29065000   T T T
     0.83049900     0.65808700     0.28860900   T T T
     0.66762500     0.58426200     0.09519900   F F F
     0.66384800     0.58480300     0.38783400   T T T
     0.08214500     0.91334700     0.28663500   T T T
     0.33242600     0.91474400     0.29082900   T T T
     0.58259700     0.91856200     0.29112100   T T T
     0.83380600     0.91558500     0.28944200   T T T
     0.66841400     0.83351100     0.09659800   F F F
     0.66105600     0.83214000     0.38817000   T T T
     0.00369118     0.00575581     0.43898948   T T T
     1.50193666     1.49896503     0.43898948   T T T
     0.99860759     1.49863814     0.43898948   T T T
     1.49964271     1.00282582     0.43898948   T T T
