POSCAR                                  
   1.00000000000000     
     9.9673800000000004    0.0000000000000000    0.0000000000000000
    -4.9836900000000002    8.6320042899999994    0.0000000000000000
     0.0000000000000000    0.0000000000000000   21.1037500000000016
   Ni   O    H 
    64     6     1
Selective dynamics
Direct
  0.1128330000000020  0.2256670000000014  0.0947699999999969   F   F   F
  0.1084215955335068  0.2276124848685441  0.3824466481728663   F   F   F
  0.1961670000000026  0.1423330000000007  0.1911780000000007   F   F   F
  0.0294840022412188  0.0590714824899621  0.2847067066337203   F   F   F
  0.3628330000000020  0.2256670000000014  0.0947699999999969   F   F   F
  0.3590634117475489  0.2237967666024687  0.3868152868317480   F   F   F
  0.4461670000000026  0.1423330000000007  0.1911780000000007   F   F   F
  0.2795024036632299  0.0601867586586806  0.2855905447824512   F   F   F
  0.6128330000000020  0.2256670000000014  0.0947699999999969   F   F   F
  0.6132698837806529  0.2252439668775779  0.3828051877176364   F   F   F
  0.6961670000000026  0.1423330000000007  0.1911780000000007   F   F   F
  0.5303506339507109  0.0600169712962639  0.2852146667693773   F   F   F
  0.8628330000000020  0.2256670000000014  0.0947699999999969   F   F   F
  0.8675381860783489  0.2277444654540801  0.3827507063737059   F   F   F
  0.9461670000000026  0.1423330000000007  0.1911780000000007   F   F   F
  0.7792914192621367  0.0592199320509437  0.2848896066970283   F   F   F
  0.1128330000000020  0.4756670000000014  0.0947699999999969   F   F   F
  0.1111536045396733  0.4726496765150969  0.3826750914901069   F   F   F
  0.1961670000000026  0.3923330000000007  0.1911780000000007   F   F   F
  0.0292901850314777  0.3092488317250712  0.2865592315670824   F   F   F
  0.3628330000000020  0.4756670000000014  0.0947699999999969   F   F   F
  0.3615351035432468  0.4769868150206449  0.3770077919681469   F   F   F
  0.4461670000000026  0.3923330000000007  0.1911780000000007   F   F   F
  0.2795483863730510  0.3079800355777493  0.2858530119607963   F   F   F
  0.6128330000000020  0.4756670000000014  0.0947699999999969   F   F   F
  0.6147412399123766  0.4794851415154184  0.3868269258355141   F   F   F
  0.6961670000000026  0.3923330000000007  0.1911780000000007   F   F   F
  0.5289452572582150  0.3095775307307846  0.2872465532761126   F   F   F
  0.8628330000000020  0.4756670000000014  0.0947699999999969   F   F   F
  0.8657940849964305  0.4772726749750120  0.3765548768331612   F   F   F
  0.9461670000000026  0.3923330000000007  0.1911780000000007   F   F   F
  0.7784962059464604  0.3081587352479929  0.2852135160385032   F   F   F
  0.1128330000000020  0.7256670000000014  0.0947699999999969   F   F   F
  0.1113780656609222  0.7271447602997796  0.3825776519967761   F   F   F
  0.1961670000000026  0.6423330000000007  0.1911780000000007   F   F   F
  0.0296896066709849  0.5591054687924171  0.2844670175911759   F   F   F
  0.3628330000000020  0.7256670000000014  0.0947699999999969   F   F   F
  0.3658999469144888  0.7273887376266543  0.3826680890259055   F   F   F
  0.4461670000000026  0.6423330000000007  0.1911780000000007   F   F   F
  0.2794502570076105  0.5590616029231583  0.2845680038246456   F   F   F
  0.6128330000000020  0.7256670000000014  0.0947699999999969   F   F   F
  0.6109061256792430  0.7301172142180476  0.3824421872186363   F   F   F
  0.6961670000000026  0.6423330000000007  0.1911780000000007   F   F   F
  0.5305255636258650  0.5589603370977159  0.2858547319309963   F   F   F
  0.8628330000000020  0.7256670000000014  0.0947699999999969   F   F   F
  0.8688616821730761  0.7299250310778618  0.3823122720649863   F   F   F
  0.9461670000000026  0.6423330000000007  0.1911780000000007   F   F   F
  0.7783276609007217  0.5590084624374470  0.2855918884234825   F   F   F
  0.1128330000000020  0.9756670000000014  0.0947699999999969   F   F   F
  0.1086070249520432  0.9696701160491870  0.3823188372564488   F   F   F
  0.1961670000000026  0.8923330000000007  0.1911780000000007   F   F   F
  0.0297311576812760  0.8087826510231508  0.2863144961131212   F   F   F
  0.3628330000000020  0.9756670000000014  0.0947699999999969   F   F   F
  0.3612461304659789  0.9727286385199960  0.3765588088528347   F   F   F
  0.4461670000000026  0.8923330000000007  0.1911780000000007   F   F   F
  0.2794054155320538  0.8088239668152752  0.2844674476566809   F   F   F
  0.6128330000000020  0.9756670000000014  0.0947699999999969   F   F   F
  0.6107854807934316  0.9709970874852871  0.3827558975233245   F   F   F
  0.6961670000000026  0.8923330000000007  0.1911780000000007   F   F   F
  0.5292635558364864  0.8092281551365019  0.2865577497126850   F   F   F
  0.8628330000000020  0.9756670000000014  0.0947699999999969   F   F   F
  0.8624404250350111  0.9760801805207961  0.3776172370232018   F   F   F
  0.9461670000000026  0.8923330000000007  0.1911780000000007   F   F   F
  0.7794348691612711  0.8090245574007469  0.2847052055125943   F   F   F
  0.1799594892810106  0.1342896191889906  0.4361097698549372   F   F   F
  0.7042596367157330  0.6586062108500172  0.4360993554795414   F   F   F
  0.1962120350531649  0.6423655844517100  0.4354814850300599   F   F   F
  0.7008352285876285  0.1377094851041321  0.4367701569100717   F   F   F
  0.5330563869488927  0.3054147458873402  0.4465847694247174   T   T   T
  0.5529055067251036  0.2850988644126176  0.5165377542929761   T   T   T
  0.6107415371519380  0.2287928100004351  0.5117693676148258   T   T   T
 
  0.00000000E+00  0.00000000E+00  0.00000000E+00
  0.00000000E+00  0.00000000E+00  0.00000000E+00
  0.00000000E+00  0.00000000E+00  0.00000000E+00
  0.00000000E+00  0.00000000E+00  0.00000000E+00
  0.00000000E+00  0.00000000E+00  0.00000000E+00
  0.00000000E+00  0.00000000E+00  0.00000000E+00
  0.00000000E+00  0.00000000E+00  0.00000000E+00
  0.00000000E+00  0.00000000E+00  0.00000000E+00
  0.00000000E+00  0.00000000E+00  0.00000000E+00
  0.00000000E+00  0.00000000E+00  0.00000000E+00
  0.00000000E+00  0.00000000E+00  0.00000000E+00
  0.00000000E+00  0.00000000E+00  0.00000000E+00
  0.00000000E+00  0.00000000E+00  0.00000000E+00
  0.00000000E+00  0.00000000E+00  0.00000000E+00
  0.00000000E+00  0.00000000E+00  0.00000000E+00
  0.00000000E+00  0.00000000E+00  0.00000000E+00
  0.00000000E+00  0.00000000E+00  0.00000000E+00
  0.00000000E+00  0.00000000E+00  0.00000000E+00
  0.00000000E+00  0.00000000E+00  0.00000000E+00
  0.00000000E+00  0.00000000E+00  0.00000000E+00
  0.00000000E+00  0.00000000E+00  0.00000000E+00
  0.00000000E+00  0.00000000E+00  0.00000000E+00
  0.00000000E+00  0.00000000E+00  0.00000000E+00
  0.00000000E+00  0.00000000E+00  0.00000000E+00
  0.00000000E+00  0.00000000E+00  0.00000000E+00
  0.00000000E+00  0.00000000E+00  0.00000000E+00
  0.00000000E+00  0.00000000E+00  0.00000000E+00
  0.00000000E+00  0.00000000E+00  0.00000000E+00
  0.00000000E+00  0.00000000E+00  0.00000000E+00
  0.00000000E+00  0.00000000E+00  0.00000000E+00
  0.00000000E+00  0.00000000E+00  0.00000000E+00
  0.00000000E+00  0.00000000E+00  0.00000000E+00
  0.00000000E+00  0.00000000E+00  0.00000000E+00
  0.00000000E+00  0.00000000E+00  0.00000000E+00
  0.00000000E+00  0.00000000E+00  0.00000000E+00
  0.00000000E+00  0.00000000E+00  0.00000000E+00
  0.00000000E+00  0.00000000E+00  0.00000000E+00
  0.00000000E+00  0.00000000E+00  0.00000000E+00
  0.00000000E+00  0.00000000E+00  0.00000000E+00
  0.00000000E+00  0.00000000E+00  0.00000000E+00
  0.00000000E+00  0.00000000E+00  0.00000000E+00
  0.00000000E+00  0.00000000E+00  0.00000000E+00
  0.00000000E+00  0.00000000E+00  0.00000000E+00
  0.00000000E+00  0.00000000E+00  0.00000000E+00
  0.00000000E+00  0.00000000E+00  0.00000000E+00
  0.00000000E+00  0.00000000E+00  0.00000000E+00
  0.00000000E+00  0.00000000E+00  0.00000000E+00
  0.00000000E+00  0.00000000E+00  0.00000000E+00
  0.00000000E+00  0.00000000E+00  0.00000000E+00
  0.00000000E+00  0.00000000E+00  0.00000000E+00
  0.00000000E+00  0.00000000E+00  0.00000000E+00
  0.00000000E+00  0.00000000E+00  0.00000000E+00
  0.00000000E+00  0.00000000E+00  0.00000000E+00
  0.00000000E+00  0.00000000E+00  0.00000000E+00
  0.00000000E+00  0.00000000E+00  0.00000000E+00
  0.00000000E+00  0.00000000E+00  0.00000000E+00
  0.00000000E+00  0.00000000E+00  0.00000000E+00
  0.00000000E+00  0.00000000E+00  0.00000000E+00
  0.00000000E+00  0.00000000E+00  0.00000000E+00
  0.00000000E+00  0.00000000E+00  0.00000000E+00
  0.00000000E+00  0.00000000E+00  0.00000000E+00
  0.00000000E+00  0.00000000E+00  0.00000000E+00
  0.00000000E+00  0.00000000E+00  0.00000000E+00
  0.00000000E+00  0.00000000E+00  0.00000000E+00
  0.00000000E+00  0.00000000E+00  0.00000000E+00
  0.00000000E+00  0.00000000E+00  0.00000000E+00
  0.00000000E+00  0.00000000E+00  0.00000000E+00
  0.00000000E+00  0.00000000E+00  0.00000000E+00
  0.00000000E+00  0.00000000E+00  0.00000000E+00
  0.00000000E+00  0.00000000E+00  0.00000000E+00
  0.00000000E+00  0.00000000E+00  0.00000000E+00
