POSCAR                                  
   1.00000000000000     
     9.9673800000000004    0.0000000000000000    0.0000000000000000
    -4.9836900000000002    8.6320042899999994    0.0000000000000000
     0.0000000000000000    0.0000000000000000   21.1037500000000016
   Ni   O    H 
    64     6     1
Selective dynamics
Direct
  0.1128330000000020  0.2256670000000014  0.0947699999999969   F   F   F
  0.1084215955335097  0.2276124848685439  0.3824466481728688   F   F   F
  0.1961670000000026  0.1423330000000007  0.1911780000000007   F   F   F
  0.0294840022412163  0.0590714824899586  0.2847067066337217   F   F   F
  0.3628330000000020  0.2256670000000014  0.0947699999999969   F   F   F
  0.3590634117475474  0.2237967666024654  0.3868152868317484   F   F   F
  0.4461670000000026  0.1423330000000007  0.1911780000000007   F   F   F
  0.2795024036632288  0.0601867586586807  0.2855905447824542   F   F   F
  0.6128330000000020  0.2256670000000014  0.0947699999999969   F   F   F
  0.6132698837806511  0.2252439668775759  0.3828051877176334   F   F   F
  0.6961670000000026  0.1423330000000007  0.1911780000000007   F   F   F
  0.5303506339507086  0.0600169712962644  0.2852146667693760   F   F   F
  0.8628330000000020  0.2256670000000014  0.0947699999999969   F   F   F
  0.8675381860783484  0.2277444654540818  0.3827507063737031   F   F   F
  0.9461670000000026  0.1423330000000007  0.1911780000000007   F   F   F
  0.7792914192621366  0.0592199320509425  0.2848896066970313   F   F   F
  0.1128330000000020  0.4756670000000014  0.0947699999999969   F   F   F
  0.1111536045396734  0.4726496765150947  0.3826750914901045   F   F   F
  0.1961670000000026  0.3923330000000007  0.1911780000000007   F   F   F
  0.0292901850314796  0.3092488317250698  0.2865592315670848   F   F   F
  0.3628330000000020  0.4756670000000014  0.0947699999999969   F   F   F
  0.3615351035432467  0.4769868150206415  0.3770077919681460   F   F   F
  0.4461670000000026  0.3923330000000007  0.1911780000000007   F   F   F
  0.2795483863730512  0.3079800355777527  0.2858530119607951   F   F   F
  0.6128330000000020  0.4756670000000014  0.0947699999999969   F   F   F
  0.6147412399123749  0.4794851415154183  0.3868269258355170   F   F   F
  0.6961670000000026  0.3923330000000007  0.1911780000000007   F   F   F
  0.5289452572582181  0.3095775307307864  0.2872465532761154   F   F   F
  0.8628330000000020  0.4756670000000014  0.0947699999999969   F   F   F
  0.8657940849964294  0.4772726749750110  0.3765548768331638   F   F   F
  0.9461670000000026  0.3923330000000007  0.1911780000000007   F   F   F
  0.7784962059464599  0.3081587352479942  0.2852135160385012   F   F   F
  0.1128330000000020  0.7256670000000014  0.0947699999999969   F   F   F
  0.1113780656609236  0.7271447602997831  0.3825776519967779   F   F   F
  0.1961670000000026  0.6423330000000007  0.1911780000000007   F   F   F
  0.0296896066709875  0.5591054687924150  0.2844670175911752   F   F   F
  0.3628330000000020  0.7256670000000014  0.0947699999999969   F   F   F
  0.3658999469144918  0.7273887376266546  0.3826680890259063   F   F   F
  0.4461670000000026  0.6423330000000007  0.1911780000000007   F   F   F
  0.2794502570076084  0.5590616029231599  0.2845680038246453   F   F   F
  0.6128330000000020  0.7256670000000014  0.0947699999999969   F   F   F
  0.6109061256792423  0.7301172142180505  0.3824421872186357   F   F   F
  0.6961670000000026  0.6423330000000007  0.1911780000000007   F   F   F
  0.5305255636258644  0.5589603370977189  0.2858547319309930   F   F   F
  0.8628330000000020  0.7256670000000014  0.0947699999999969   F   F   F
  0.8688616821730761  0.7299250310778618  0.3823122720649874   F   F   F
  0.9461670000000026  0.6423330000000007  0.1911780000000007   F   F   F
  0.7783276609007233  0.5590084624374442  0.2855918884234821   F   F   F
  0.1128330000000020  0.9756670000000014  0.0947699999999969   F   F   F
  0.1086070249520439  0.9696701160491878  0.3823188372564490   F   F   F
  0.1961670000000026  0.8923330000000007  0.1911780000000007   F   F   F
  0.0297311576812730  0.8087826510231514  0.2863144961131237   F   F   F
  0.3628330000000020  0.9756670000000014  0.0947699999999969   F   F   F
  0.3612461304659766  0.9727286385199970  0.3765588088528349   F   F   F
  0.4461670000000026  0.8923330000000007  0.1911780000000007   F   F   F
  0.2794054155320504  0.8088239668152737  0.2844674476566842   F   F   F
  0.6128330000000020  0.9756670000000014  0.0947699999999969   F   F   F
  0.6107854807934313  0.9709970874852889  0.3827558975233225   F   F   F
  0.6961670000000026  0.8923330000000007  0.1911780000000007   F   F   F
  0.5292635558364864  0.8092281551365033  0.2865577497126826   F   F   F
  0.8628330000000020  0.9756670000000014  0.0947699999999969   F   F   F
  0.8624404250350108  0.9760801805207997  0.3776172370232038   F   F   F
  0.9461670000000026  0.8923330000000007  0.1911780000000007   F   F   F
  0.7794348691612704  0.8090245574007494  0.2847052055125935   F   F   F
  0.1799594892810123  0.1342896191889917  0.4361097698549400   F   F   F
  0.7042596367157309  0.6586062108500149  0.4360993554795436   F   F   F
  0.1962120350531629  0.6423655844517073  0.4354814850300622   F   F   F
  0.7008352285876290  0.1377094851041328  0.4367701569100712   F   F   F
  0.5330563869488902  0.3054147458873389  0.4465847694247190   T   T   T
  0.5529055067251041  0.2850988644126149  0.5165377542929765   T   T   T
  0.6107415371519402  0.2287928100004373  0.5124801417663403   T   T   T
 
  0.00000000E+00  0.00000000E+00  0.00000000E+00
  0.00000000E+00  0.00000000E+00  0.00000000E+00
  0.00000000E+00  0.00000000E+00  0.00000000E+00
  0.00000000E+00  0.00000000E+00  0.00000000E+00
  0.00000000E+00  0.00000000E+00  0.00000000E+00
  0.00000000E+00  0.00000000E+00  0.00000000E+00
  0.00000000E+00  0.00000000E+00  0.00000000E+00
  0.00000000E+00  0.00000000E+00  0.00000000E+00
  0.00000000E+00  0.00000000E+00  0.00000000E+00
  0.00000000E+00  0.00000000E+00  0.00000000E+00
  0.00000000E+00  0.00000000E+00  0.00000000E+00
  0.00000000E+00  0.00000000E+00  0.00000000E+00
  0.00000000E+00  0.00000000E+00  0.00000000E+00
  0.00000000E+00  0.00000000E+00  0.00000000E+00
  0.00000000E+00  0.00000000E+00  0.00000000E+00
  0.00000000E+00  0.00000000E+00  0.00000000E+00
  0.00000000E+00  0.00000000E+00  0.00000000E+00
  0.00000000E+00  0.00000000E+00  0.00000000E+00
  0.00000000E+00  0.00000000E+00  0.00000000E+00
  0.00000000E+00  0.00000000E+00  0.00000000E+00
  0.00000000E+00  0.00000000E+00  0.00000000E+00
  0.00000000E+00  0.00000000E+00  0.00000000E+00
  0.00000000E+00  0.00000000E+00  0.00000000E+00
  0.00000000E+00  0.00000000E+00  0.00000000E+00
  0.00000000E+00  0.00000000E+00  0.00000000E+00
  0.00000000E+00  0.00000000E+00  0.00000000E+00
  0.00000000E+00  0.00000000E+00  0.00000000E+00
  0.00000000E+00  0.00000000E+00  0.00000000E+00
  0.00000000E+00  0.00000000E+00  0.00000000E+00
  0.00000000E+00  0.00000000E+00  0.00000000E+00
  0.00000000E+00  0.00000000E+00  0.00000000E+00
  0.00000000E+00  0.00000000E+00  0.00000000E+00
  0.00000000E+00  0.00000000E+00  0.00000000E+00
  0.00000000E+00  0.00000000E+00  0.00000000E+00
  0.00000000E+00  0.00000000E+00  0.00000000E+00
  0.00000000E+00  0.00000000E+00  0.00000000E+00
  0.00000000E+00  0.00000000E+00  0.00000000E+00
  0.00000000E+00  0.00000000E+00  0.00000000E+00
  0.00000000E+00  0.00000000E+00  0.00000000E+00
  0.00000000E+00  0.00000000E+00  0.00000000E+00
  0.00000000E+00  0.00000000E+00  0.00000000E+00
  0.00000000E+00  0.00000000E+00  0.00000000E+00
  0.00000000E+00  0.00000000E+00  0.00000000E+00
  0.00000000E+00  0.00000000E+00  0.00000000E+00
  0.00000000E+00  0.00000000E+00  0.00000000E+00
  0.00000000E+00  0.00000000E+00  0.00000000E+00
  0.00000000E+00  0.00000000E+00  0.00000000E+00
  0.00000000E+00  0.00000000E+00  0.00000000E+00
  0.00000000E+00  0.00000000E+00  0.00000000E+00
  0.00000000E+00  0.00000000E+00  0.00000000E+00
  0.00000000E+00  0.00000000E+00  0.00000000E+00
  0.00000000E+00  0.00000000E+00  0.00000000E+00
  0.00000000E+00  0.00000000E+00  0.00000000E+00
  0.00000000E+00  0.00000000E+00  0.00000000E+00
  0.00000000E+00  0.00000000E+00  0.00000000E+00
  0.00000000E+00  0.00000000E+00  0.00000000E+00
  0.00000000E+00  0.00000000E+00  0.00000000E+00
  0.00000000E+00  0.00000000E+00  0.00000000E+00
  0.00000000E+00  0.00000000E+00  0.00000000E+00
  0.00000000E+00  0.00000000E+00  0.00000000E+00
  0.00000000E+00  0.00000000E+00  0.00000000E+00
  0.00000000E+00  0.00000000E+00  0.00000000E+00
  0.00000000E+00  0.00000000E+00  0.00000000E+00
  0.00000000E+00  0.00000000E+00  0.00000000E+00
  0.00000000E+00  0.00000000E+00  0.00000000E+00
  0.00000000E+00  0.00000000E+00  0.00000000E+00
  0.00000000E+00  0.00000000E+00  0.00000000E+00
  0.00000000E+00  0.00000000E+00  0.00000000E+00
  0.00000000E+00  0.00000000E+00  0.00000000E+00
  0.00000000E+00  0.00000000E+00  0.00000000E+00
  0.00000000E+00  0.00000000E+00  0.00000000E+00
