POSCAR                                  
   1.00000000000000     
    10.1116299999999999    0.0000000000000000    0.0000000000000000
    -5.0558149999999999    8.7569284500000002    0.0000000000000000
     0.0000000000000000    0.0000000000000000   21.2664283000000012
   Fe   Ni
    48    16
Selective dynamics
Direct
  0.0019470000000013  0.9992000000000019  0.0968293700000018   F   F   F
  0.9991861106682280  0.9963799122634537  0.3734487063081452   T   T   T
  0.4988060000000019  0.9964760000000012  0.0961454199999991   F   F   F
  0.5050585196289321  0.9966539748311142  0.3743171008159737   T   T   T
  0.7431600000000032  0.9964590000000015  0.0944307400000000   F   F   F
  0.7423641909502446  0.9911534202572967  0.3730373182951509   T   T   T
  0.2491360000000000  0.2532259999999980  0.0968104399999987   F   F   F
  0.2504730473851589  0.2522818593834150  0.3724865767927982   T   T   T
  0.0887320000000003  0.1614939999999976  0.1905915199999981   F   F   F
  0.3296259999999975  0.1660979999999981  0.1950626799999995   F   F   F
  0.1675868804640052  0.0855643067811696  0.2840458081002719   T   T   T
  0.5833299999999966  0.1655030000000011  0.1944369599999973   F   F   F
  0.4226334091153041  0.0892427293075508  0.2837274886407480   T   T   T
  0.8265150000000006  0.1665100000000024  0.1932626799999966   F   F   F
  0.6657189274791941  0.0843996984778760  0.2859277276726933   T   T   T
  0.0032080000000008  0.5109089999999981  0.0945134299999992   F   F   F
  0.0065702559444866  0.5111726913939606  0.3743896938722888   T   T   T
  0.2558689999999970  0.5057770000000019  0.0973464799999988   F   F   F
  0.2527345978894180  0.5031992920754640  0.3727775633041202   T   T   T
  0.4996020000000030  0.5030489999999972  0.0975409799999980   F   F   F
  0.5029848045931530  0.5047720111006280  0.3736775548055138   T   T   T
  0.3385990000000021  0.4158370000000033  0.1893933699999977   F   F   F
  0.7567909999999998  0.5080430000000007  0.0963093499999985   F   F   F
  0.7503898826977227  0.5038398959069029  0.3729478820190663   T   T   T
  0.5863360000000029  0.4222940000000008  0.1942357599999980   F   F   F
  0.4182869313541692  0.3258511852099759  0.2850399741719121   T   T   T
  0.8267710000000008  0.4167619999999985  0.1919949400000007   F   F   F
  0.6622986109484521  0.3359417901207326  0.2841171578059293   T   T   T
  0.9918059999999969  0.7470280000000002  0.0957130399999997   F   F   F
  0.0002324393853138  0.7489422563133074  0.3747860435368124   T   T   T
  0.2510460000000023  0.7456389999999971  0.0970363899999995   F   F   F
  0.2432782769212490  0.7438104283099939  0.3736244442907205   T   T   T
  0.0860460000000032  0.6708690000000033  0.1922022500000011   F   F   F
  0.5015369999999990  0.7490570000000005  0.0975287500000022   F   F   F
  0.5050458747572039  0.7503214568857294  0.3736515070303561   T   T   T
  0.3300589999999985  0.6613559999999978  0.1901862100000002   F   F   F
  0.1640310307436174  0.5896250667641123  0.2863149763537254   T   T   T
  0.7477749999999972  0.7486310000000032  0.0940449400000034   F   F   F
  0.7467970806719613  0.7484479951053679  0.3729873449559387   T   T   T
  0.5800819999999973  0.6609630000000024  0.1915273299999996   F   F   F
  0.8321370000000030  0.6619949999999974  0.1930352799999966   F   F   F
  0.6707009766535420  0.5872957553279783  0.2855373060594444   T   T   T
  0.9203925355236690  0.5897528158622013  0.2858575998044421   T   T   T
  0.0860360000000000  0.9163550000000029  0.1937119500000009   F   F   F
  0.3274299999999997  0.9193220000000011  0.1929365800000014   F   F   F
  0.1608782051290112  0.8291589596518337  0.2859833716368430   T   T   T
  0.6678621554785038  0.8306739806897927  0.2867711165314694   T   T   T
  0.9197838969985432  0.8295501191812354  0.2867739714515161   T   T   T
  0.2491649999999979  0.9981310000000008  0.0955983200000006   F   F   F
  0.2496459381731840  0.9991047759143923  0.3780760951899667   T   T   T
  0.0012970000000010  0.2497419999999977  0.0965859499999979   F   F   F
  0.0035961075482842  0.2518868772693492  0.3770221093712016   T   T   T
  0.4993309999999980  0.2516269999999992  0.0953726600000024   F   F   F
  0.5005740507216824  0.2519308986730457  0.3793210814064203   T   T   T
  0.7494420000000019  0.2507129999999975  0.0957307999999983   F   F   F
  0.7496213030386643  0.2516301768568475  0.3774424686411624   T   T   T
  0.9140811502330587  0.0814809462201469  0.2834644051253930   T   T   T
  0.0826080000000005  0.4170799999999986  0.1922532099999970   F   F   F
  0.1692987885861343  0.3344888233572595  0.2833064268720958   T   T   T
  0.9144438382607405  0.3360222708508215  0.2843224755596321   T   T   T
  0.4181075302759072  0.5843174872943090  0.2835462706863090   T   T   T
  0.5819070000000011  0.9152690000000021  0.1924127699999971   F   F   F
  0.4133514702864322  0.8342304279204067  0.2844861730633741   T   T   T
  0.8339989999999986  0.9145710000000022  0.1924040299999987   F   F   F
 
  0.00000000E+00  0.00000000E+00  0.00000000E+00
  0.00000000E+00  0.00000000E+00  0.00000000E+00
  0.00000000E+00  0.00000000E+00  0.00000000E+00
  0.00000000E+00  0.00000000E+00  0.00000000E+00
  0.00000000E+00  0.00000000E+00  0.00000000E+00
  0.00000000E+00  0.00000000E+00  0.00000000E+00
  0.00000000E+00  0.00000000E+00  0.00000000E+00
  0.00000000E+00  0.00000000E+00  0.00000000E+00
  0.00000000E+00  0.00000000E+00  0.00000000E+00
  0.00000000E+00  0.00000000E+00  0.00000000E+00
  0.00000000E+00  0.00000000E+00  0.00000000E+00
  0.00000000E+00  0.00000000E+00  0.00000000E+00
  0.00000000E+00  0.00000000E+00  0.00000000E+00
  0.00000000E+00  0.00000000E+00  0.00000000E+00
  0.00000000E+00  0.00000000E+00  0.00000000E+00
  0.00000000E+00  0.00000000E+00  0.00000000E+00
  0.00000000E+00  0.00000000E+00  0.00000000E+00
  0.00000000E+00  0.00000000E+00  0.00000000E+00
  0.00000000E+00  0.00000000E+00  0.00000000E+00
  0.00000000E+00  0.00000000E+00  0.00000000E+00
  0.00000000E+00  0.00000000E+00  0.00000000E+00
  0.00000000E+00  0.00000000E+00  0.00000000E+00
  0.00000000E+00  0.00000000E+00  0.00000000E+00
  0.00000000E+00  0.00000000E+00  0.00000000E+00
  0.00000000E+00  0.00000000E+00  0.00000000E+00
  0.00000000E+00  0.00000000E+00  0.00000000E+00
  0.00000000E+00  0.00000000E+00  0.00000000E+00
  0.00000000E+00  0.00000000E+00  0.00000000E+00
  0.00000000E+00  0.00000000E+00  0.00000000E+00
  0.00000000E+00  0.00000000E+00  0.00000000E+00
  0.00000000E+00  0.00000000E+00  0.00000000E+00
  0.00000000E+00  0.00000000E+00  0.00000000E+00
  0.00000000E+00  0.00000000E+00  0.00000000E+00
  0.00000000E+00  0.00000000E+00  0.00000000E+00
  0.00000000E+00  0.00000000E+00  0.00000000E+00
  0.00000000E+00  0.00000000E+00  0.00000000E+00
  0.00000000E+00  0.00000000E+00  0.00000000E+00
  0.00000000E+00  0.00000000E+00  0.00000000E+00
  0.00000000E+00  0.00000000E+00  0.00000000E+00
  0.00000000E+00  0.00000000E+00  0.00000000E+00
  0.00000000E+00  0.00000000E+00  0.00000000E+00
  0.00000000E+00  0.00000000E+00  0.00000000E+00
  0.00000000E+00  0.00000000E+00  0.00000000E+00
  0.00000000E+00  0.00000000E+00  0.00000000E+00
  0.00000000E+00  0.00000000E+00  0.00000000E+00
  0.00000000E+00  0.00000000E+00  0.00000000E+00
  0.00000000E+00  0.00000000E+00  0.00000000E+00
  0.00000000E+00  0.00000000E+00  0.00000000E+00
  0.00000000E+00  0.00000000E+00  0.00000000E+00
  0.00000000E+00  0.00000000E+00  0.00000000E+00
  0.00000000E+00  0.00000000E+00  0.00000000E+00
  0.00000000E+00  0.00000000E+00  0.00000000E+00
  0.00000000E+00  0.00000000E+00  0.00000000E+00
  0.00000000E+00  0.00000000E+00  0.00000000E+00
  0.00000000E+00  0.00000000E+00  0.00000000E+00
  0.00000000E+00  0.00000000E+00  0.00000000E+00
  0.00000000E+00  0.00000000E+00  0.00000000E+00
  0.00000000E+00  0.00000000E+00  0.00000000E+00
  0.00000000E+00  0.00000000E+00  0.00000000E+00
  0.00000000E+00  0.00000000E+00  0.00000000E+00
  0.00000000E+00  0.00000000E+00  0.00000000E+00
  0.00000000E+00  0.00000000E+00  0.00000000E+00
  0.00000000E+00  0.00000000E+00  0.00000000E+00
  0.00000000E+00  0.00000000E+00  0.00000000E+00
