POSCAR                                  
   3.57100000000000     
     1.5000000000000000    0.0000000000000000   -1.5000000000000000
     2.0000000000000000    1.5000000000000000    2.5000000000000000
    -0.5000000000000000   -4.0000000000000000    0.5000000000000000
   Fe   Ni
    54    54
Direct
  0.1568898153993885  0.1089615986087651  0.9155687134017683
  0.0398995045377788  0.4470944650471864  0.9153577610112720
  0.2507982828745838  0.0013020637023970  0.7504925337618005
  0.4939191986068607  0.1110021993658350  0.9168635310411233
  0.1402758873515779  0.3360959694951617  0.7487040628102832
  0.3782317297825131  0.4463160165311066  0.9154892570705755
  0.0239091829523730  0.6634734571794354  0.7448715024436652
  0.2690897725879751  0.7770109873864612  0.9179823848361366
  0.5888579270449270  0.9959366956035467  0.7472595983344661
  0.0590451425279852  0.3342327536404142  0.5019042383022665
  0.6472028706596546  0.2207916451533833  0.8319289994325416
  0.4735167224051864  0.3344663275577560  0.7489705154516457
  0.5366967810238421  0.5578832136142893  0.8330365366662917
  0.6030394660926746  0.7813852311917913  0.9162825953789167
  0.4998736060358056  0.0005002761308077  0.5008309707837526
  0.3199054768334619  0.1089000361759744  0.4142916250079480
  0.1470043744162624  0.2199520232590046  0.3307762326856789
  0.5622881373996265  0.2224904445709939  0.5834002440345216
  0.0386126570853378  0.5587066176047273  0.3326588106299440
  0.9829411789894920  0.2179627479429413  0.8294056360063280
  0.6343806248305697  0.4453046084240029  0.6666412400645285
  0.2815396046186507  0.6652105127134575  0.5050529355909035
  0.0996019168927802  0.7828763543267598  0.4154683129207726
  0.3397616086227302  0.8884256342244470  0.5843783844595265
  0.9349026957768203  0.7752166770169140  0.9174842382315234
  0.9946139558693616  0.0008072279687994  0.0013284781346883
  0.8360192670243904  0.9946059455604868  0.5018452648783125
  0.6579860668086894  0.1138901605556057  0.4167419350933557
  0.4807173112583101  0.2253680968924030  0.3335704744670949
  0.3057307623746937  0.3376513081680415  0.2530031154857539
  0.1255244174451420  0.4407961024257929  0.1652026854293425
  0.8956586881906361  0.2213638126433750  0.5841750122087745
  0.7219317750890042  0.3355501698836534  0.5009021536256597
  0.3700414423073184  0.5588775831840920  0.3341393771634458
  0.0157201416641257  0.7786368070249949  0.1664270639878538
  0.4390889679226575  0.7792075801325353  0.4183264957153838
  0.3347666294584499  0.9992785623566078  0.9990793359509667
  0.4002092914212554  0.2233023878220592  0.0880568501783472
  0.2214761100456073  0.3310929117795496  0.9976342705178638
  0.9867608886550414  0.1073695498071459  0.4143307321710381
  0.8113282868715999  0.2220377761940426  0.3305358558934230
  0.2887078021399958  0.5551131435191294  0.0854627046899097
  0.8800689302499833  0.4464069070991670  0.4186960972506739
  0.7021967859465832  0.5566648345939882  0.3347856708696426
  0.3534567892290639  0.7790895560207360  0.1643034532665126
  0.9481225241162718  0.6715355537270611  0.5071647406107829
  0.5963295136808782  0.8901569668234757  0.3318436922515104
  0.7356790557259529  0.2184015698576687  0.0821909336154292
  0.5574224341331799  0.3350467619033211  0.0008442085993252
  0.9712056705308711  0.3323059463277218  0.2504245518710917
  0.7915510688285536  0.4417581076083295  0.1679538952676509
  0.6200635592502692  0.5575574190369821  0.0864732488085522
  0.9528696112491986  0.5509003312879699  0.0858546201388890
  0.7777636900253739  0.6620722346095960  0.9979566415091767
  0.0751623475933840  0.1123745310226454  0.6658458594228236
  0.3163892980363485  0.2224103441751453  0.8315293796090373
  0.2044506277192397  0.5579002272832838  0.8327903625394839
  0.0904046836341266  0.8875176731101106  0.8329654959243982
  0.1656939600037788  0.9995972997879932  0.4995834152137419
  0.4061326024810157  0.1115333807261933  0.6661828726969219
  0.2299355479304239  0.2218849003113519  0.5825333289308006
  0.8250491089019292  0.1090678622885122  0.9142026992454433
  0.2997206970307289  0.4457323106151634  0.6683864362510477
  0.1216544607338008  0.5541499397041107  0.5837255496559308
  0.7126912839772217  0.4413552343672791  0.9159006144239754
  0.3612616580563355  0.6677118411284013  0.7500678762789477
  0.1871487631846946  0.7789989508590907  0.6682525824952918
  0.0094593828562637  0.8876706183837939  0.5848376948092238
  0.4261424569819496  0.8886620226603128  0.8320442980178058
  0.0818420714047932  0.9992760973340538  0.2491361812389883
  0.9209243426339029  0.9999858609497494  0.7493875666442520
  0.7402268884274861  0.1103501977709982  0.6661618216391645
  0.3882005630464320  0.3325469498016389  0.5004729100800134
  0.2128426226262476  0.4450815079610493  0.4183169898502115
  0.8052750684695127  0.3320892757862310  0.7496302877308594
  0.4559702134954264  0.5539434519783200  0.5833199884091798
  0.8692197914997948  0.5549508162544541  0.8315725132751126
  0.6957732910450503  0.6672621731074457  0.7495136473903301
  0.5189277558343832  0.7768017747216902  0.6674963310886923
  0.7627968117612767  0.8892357541442450  0.8346702928019809
  0.4155090117076270  0.0019435624162654  0.2505026925807528
  0.2387532392619391  0.1110786157975170  0.1666246045441184
  0.0652250783762156  0.2200006535612360  0.0830312742133614
  0.5454651112612723  0.4458821916172084  0.4179980904179388
  0.1958495067806467  0.6697355529928544  0.2498088057447987
  0.9635162068889258  0.4426556169452525  0.6657215506372722
  0.7879654901486575  0.5563635479732412  0.5831478373286956
  0.6128052737465950  0.6678662550342622  0.5023685948594689
  0.2603993092835992  0.8900203368347732  0.3326469511571943
  0.8516487417152590  0.7784656914694281  0.6683799683022613
  0.6741609898843492  0.8880156132367105  0.5831538798658613
  0.7494490274424024  0.0012614307386372  0.2497541700532153
  0.5741503088313209  0.1101205839786346  0.1657702715728320
  0.6354282727927583  0.3348539905602550  0.2512894289861336
  0.4616914304227819  0.4455107302114882  0.1686746074653769
  0.1131011821945904  0.6658847246985573  0.0009410725039842
  0.5289172108030371  0.6692497146827421  0.2514210707033868
  0.1746510564778134  0.8899122469283540  0.0826796731776085
  0.7704113600783060  0.7766816507384320  0.4170293326967638
  0.6651696118808914  0.9991465625129052  0.9985130746019166
  0.9051710695212876  0.1091282692454030  0.1661521369947820
  0.4458397588492673  0.6677806524918850  0.9999410000698248
  0.8601593002054315  0.6688419105745638  0.2503528357484157
  0.6846594641659465  0.7774114357772746  0.1649523138579596
  0.5094827882039823  0.8900717958104991  0.0826724887524222
  0.9229774699727926  0.8892504641004280  0.3327729210019044
  0.8880472696513309  0.3289466427421459  0.9981956872612869
  0.8409035572241024  0.8874846888138919  0.0826222492281943
 
  0.00000000E+00  0.00000000E+00  0.00000000E+00
  0.00000000E+00  0.00000000E+00  0.00000000E+00
  0.00000000E+00  0.00000000E+00  0.00000000E+00
  0.00000000E+00  0.00000000E+00  0.00000000E+00
  0.00000000E+00  0.00000000E+00  0.00000000E+00
  0.00000000E+00  0.00000000E+00  0.00000000E+00
  0.00000000E+00  0.00000000E+00  0.00000000E+00
  0.00000000E+00  0.00000000E+00  0.00000000E+00
  0.00000000E+00  0.00000000E+00  0.00000000E+00
  0.00000000E+00  0.00000000E+00  0.00000000E+00
  0.00000000E+00  0.00000000E+00  0.00000000E+00
  0.00000000E+00  0.00000000E+00  0.00000000E+00
  0.00000000E+00  0.00000000E+00  0.00000000E+00
  0.00000000E+00  0.00000000E+00  0.00000000E+00
  0.00000000E+00  0.00000000E+00  0.00000000E+00
  0.00000000E+00  0.00000000E+00  0.00000000E+00
  0.00000000E+00  0.00000000E+00  0.00000000E+00
  0.00000000E+00  0.00000000E+00  0.00000000E+00
  0.00000000E+00  0.00000000E+00  0.00000000E+00
  0.00000000E+00  0.00000000E+00  0.00000000E+00
  0.00000000E+00  0.00000000E+00  0.00000000E+00
  0.00000000E+00  0.00000000E+00  0.00000000E+00
  0.00000000E+00  0.00000000E+00  0.00000000E+00
  0.00000000E+00  0.00000000E+00  0.00000000E+00
  0.00000000E+00  0.00000000E+00  0.00000000E+00
  0.00000000E+00  0.00000000E+00  0.00000000E+00
  0.00000000E+00  0.00000000E+00  0.00000000E+00
  0.00000000E+00  0.00000000E+00  0.00000000E+00
  0.00000000E+00  0.00000000E+00  0.00000000E+00
  0.00000000E+00  0.00000000E+00  0.00000000E+00
  0.00000000E+00  0.00000000E+00  0.00000000E+00
  0.00000000E+00  0.00000000E+00  0.00000000E+00
  0.00000000E+00  0.00000000E+00  0.00000000E+00
  0.00000000E+00  0.00000000E+00  0.00000000E+00
  0.00000000E+00  0.00000000E+00  0.00000000E+00
  0.00000000E+00  0.00000000E+00  0.00000000E+00
  0.00000000E+00  0.00000000E+00  0.00000000E+00
  0.00000000E+00  0.00000000E+00  0.00000000E+00
  0.00000000E+00  0.00000000E+00  0.00000000E+00
  0.00000000E+00  0.00000000E+00  0.00000000E+00
  0.00000000E+00  0.00000000E+00  0.00000000E+00
  0.00000000E+00  0.00000000E+00  0.00000000E+00
  0.00000000E+00  0.00000000E+00  0.00000000E+00
  0.00000000E+00  0.00000000E+00  0.00000000E+00
  0.00000000E+00  0.00000000E+00  0.00000000E+00
  0.00000000E+00  0.00000000E+00  0.00000000E+00
  0.00000000E+00  0.00000000E+00  0.00000000E+00
  0.00000000E+00  0.00000000E+00  0.00000000E+00
  0.00000000E+00  0.00000000E+00  0.00000000E+00
  0.00000000E+00  0.00000000E+00  0.00000000E+00
  0.00000000E+00  0.00000000E+00  0.00000000E+00
  0.00000000E+00  0.00000000E+00  0.00000000E+00
  0.00000000E+00  0.00000000E+00  0.00000000E+00
  0.00000000E+00  0.00000000E+00  0.00000000E+00
  0.00000000E+00  0.00000000E+00  0.00000000E+00
  0.00000000E+00  0.00000000E+00  0.00000000E+00
  0.00000000E+00  0.00000000E+00  0.00000000E+00
  0.00000000E+00  0.00000000E+00  0.00000000E+00
  0.00000000E+00  0.00000000E+00  0.00000000E+00
  0.00000000E+00  0.00000000E+00  0.00000000E+00
  0.00000000E+00  0.00000000E+00  0.00000000E+00
  0.00000000E+00  0.00000000E+00  0.00000000E+00
  0.00000000E+00  0.00000000E+00  0.00000000E+00
  0.00000000E+00  0.00000000E+00  0.00000000E+00
  0.00000000E+00  0.00000000E+00  0.00000000E+00
  0.00000000E+00  0.00000000E+00  0.00000000E+00
  0.00000000E+00  0.00000000E+00  0.00000000E+00
  0.00000000E+00  0.00000000E+00  0.00000000E+00
  0.00000000E+00  0.00000000E+00  0.00000000E+00
  0.00000000E+00  0.00000000E+00  0.00000000E+00
  0.00000000E+00  0.00000000E+00  0.00000000E+00
  0.00000000E+00  0.00000000E+00  0.00000000E+00
  0.00000000E+00  0.00000000E+00  0.00000000E+00
  0.00000000E+00  0.00000000E+00  0.00000000E+00
  0.00000000E+00  0.00000000E+00  0.00000000E+00
  0.00000000E+00  0.00000000E+00  0.00000000E+00
  0.00000000E+00  0.00000000E+00  0.00000000E+00
  0.00000000E+00  0.00000000E+00  0.00000000E+00
  0.00000000E+00  0.00000000E+00  0.00000000E+00
  0.00000000E+00  0.00000000E+00  0.00000000E+00
  0.00000000E+00  0.00000000E+00  0.00000000E+00
  0.00000000E+00  0.00000000E+00  0.00000000E+00
  0.00000000E+00  0.00000000E+00  0.00000000E+00
  0.00000000E+00  0.00000000E+00  0.00000000E+00
  0.00000000E+00  0.00000000E+00  0.00000000E+00
  0.00000000E+00  0.00000000E+00  0.00000000E+00
  0.00000000E+00  0.00000000E+00  0.00000000E+00
  0.00000000E+00  0.00000000E+00  0.00000000E+00
  0.00000000E+00  0.00000000E+00  0.00000000E+00
  0.00000000E+00  0.00000000E+00  0.00000000E+00
  0.00000000E+00  0.00000000E+00  0.00000000E+00
  0.00000000E+00  0.00000000E+00  0.00000000E+00
  0.00000000E+00  0.00000000E+00  0.00000000E+00
  0.00000000E+00  0.00000000E+00  0.00000000E+00
  0.00000000E+00  0.00000000E+00  0.00000000E+00
  0.00000000E+00  0.00000000E+00  0.00000000E+00
  0.00000000E+00  0.00000000E+00  0.00000000E+00
  0.00000000E+00  0.00000000E+00  0.00000000E+00
  0.00000000E+00  0.00000000E+00  0.00000000E+00
  0.00000000E+00  0.00000000E+00  0.00000000E+00
  0.00000000E+00  0.00000000E+00  0.00000000E+00
  0.00000000E+00  0.00000000E+00  0.00000000E+00
  0.00000000E+00  0.00000000E+00  0.00000000E+00
  0.00000000E+00  0.00000000E+00  0.00000000E+00
  0.00000000E+00  0.00000000E+00  0.00000000E+00
  0.00000000E+00  0.00000000E+00  0.00000000E+00
  0.00000000E+00  0.00000000E+00  0.00000000E+00
  0.00000000E+00  0.00000000E+00  0.00000000E+00
