POSCAR                                  
   1.00000000000000     
    10.1003100000000003    0.0000000000000000    0.0000000000000000
    -5.0501550000000002    8.7471250499999993    0.0000000000000000
     0.0000000000000000    0.0000000000000000   21.2537999999999982
   Ni   Fe   O    H 
    33    31     5     1
Selective dynamics
Direct
  0.9990430000000003  0.0006419999999991  0.1905229999999989   F   F   F
  0.2484910000000013  0.9986279999999965  0.1920550000000034   F   F   F
  0.4990250000000032  0.0019270000000020  0.1918059999999997   F   F   F
  0.9981390000000019  0.2506739999999965  0.1919419999999974   F   F   F
  0.2492149999999995  0.2488620000000026  0.1911860000000019   F   F   F
  0.3314955447186705  0.1645160430651984  0.2874883179515564   T   T   T
  0.7489350000000030  0.2527809999999988  0.1931749999999965   F   F   F
  0.4183749999999975  0.0839399999999983  0.0941180000000017   F   F   F
  0.4158598878338751  0.0861169936173312  0.3825955717684408   T   T   T
  0.8310333665216376  0.1663043615617212  0.2895581052158107   T   T   T
  0.6679699999999968  0.0847229999999968  0.0956929999999971   F   F   F
  0.6670101926005145  0.0869918554382352  0.3834574475784009   T   T   T
  0.9990859999999984  0.4991079999999997  0.1930400000000034   F   F   F
  0.7481689999999972  0.4987110000000001  0.1920459999999977   F   F   F
  0.5833578917228195  0.4189025554270529  0.2865163575505392   T   T   T
  0.4196099999999987  0.3333709999999996  0.0941400000000030   F   F   F
  0.4135402298403577  0.3287529371279305  0.3814570112392417   T   T   T
  0.8300873304131926  0.4164757049905035  0.2876593542673476   T   T   T
  0.9185590000000019  0.3350160000000031  0.0956869999999981   F   F   F
  0.9134842278130435  0.3313666913723736  0.3847936470464788   T   T   T
  0.9976580000000013  0.7489690000000024  0.1925600000000003   F   F   F
  0.0830077472649933  0.6655487584040216  0.2870475874017728   T   T   T
  0.7534649999999985  0.7517280000000000  0.1916289999999989   F   F   F
  0.4173729999999978  0.5835239999999970  0.0962340000000026   F   F   F
  0.4109755175375298  0.5805113538542983  0.3829467288671253   T   T   T
  0.9155080000000027  0.5846190000000036  0.0954290000000029   F   F   F
  0.9096144292725938  0.5858907663149608  0.3840613675101352   T   T   T
  0.1668289999999999  0.8349079999999987  0.0945669999999978   F   F   F
  0.1644342951212394  0.8361936310545417  0.3771489076938010   T   T   T
  0.4171529999999990  0.8333879999999994  0.0967929999999981   F   F   F
  0.4129354403288445  0.8317839115139449  0.3849923100261847   T   T   T
  0.9198510000000013  0.8326369999999983  0.0953980000000030   F   F   F
  0.9156525030496852  0.8343007910519020  0.3805322328416239   T   T   T
  0.7491819999999976  0.0045379999999966  0.1931129999999968   F   F   F
  0.0759923893188841  0.1605283072897663  0.2846261073089593   T   T   T
  0.4931899999999985  0.2454400000000021  0.1916780000000031   F   F   F
  0.1713960000000014  0.0833930000000009  0.0953590000000020   F   F   F
  0.1750320286861466  0.0854013364440576  0.3839727607676977   T   T   T
  0.5858488141675053  0.1662748472326356  0.2857816241849491   T   T   T
  0.9169309999999982  0.0858149999999966  0.0941010000000020   F   F   F
  0.9134366568163657  0.0872630090731050  0.3832004971211731   T   T   T
  0.2459640000000007  0.4966930000000005  0.1936990000000023   F   F   F
  0.0764097126676688  0.4173419463321224  0.2876254088530104   T   T   T
  0.5029729999999972  0.4996209999999977  0.1909629999999964   F   F   F
  0.3358600126671689  0.4168095580619919  0.2856470927579622   T   T   T
  0.1708140000000000  0.3372420000000034  0.0955050000000028   F   F   F
  0.1642898703853248  0.3312148256792184  0.3769298734275424   T   T   T
  0.6726469999999978  0.3359809999999968  0.0960030000000032   F   F   F
  0.6661507038048100  0.3360587896285452  0.3789998138699033   T   T   T
  0.2449050000000028  0.7526999999999973  0.1934359999999984   F   F   F
  0.4984030000000033  0.7498829999999970  0.1926070000000024   F   F   F
  0.3481036465745717  0.6728993444801219  0.2888341199256814   T   T   T
  0.1647060000000025  0.5862709999999964  0.0973309999999969   F   F   F
  0.1700616274663886  0.5898641884312639  0.3845662975820900   T   T   T
  0.5840773140719264  0.6723986775814410  0.2880684946386367   T   T   T
  0.8283949692419910  0.6612374367843401  0.2882020435713599   T   T   T
  0.6676250000000010  0.5842620000000025  0.0951990000000009   F   F   F
  0.6675445302107903  0.5867351275707833  0.3888732134937314   T   T   T
  0.0810624651618639  0.9162007471317040  0.2850031249326435   T   T   T
  0.3339835917101652  0.9141740481616623  0.2880886361580792   T   T   T
  0.5828831618174206  0.9101985798759529  0.2888748824994636   T   T   T
  0.8192905140476014  0.9098941872959330  0.2875864817376765   T   T   T
  0.6684139999999985  0.8335110000000014  0.0965980000000002   F   F   F
  0.6650306372859731  0.8332928558789590  0.3903180540205398   T   T   T
  0.0063199181434328  0.0122811002603811  0.4357813196807001   T   T   T
  0.4939265017665946  0.4918252968873915  0.4368851819754553   T   T   T
  0.0025391406044974  0.5039134949286321  0.4360654336656040   T   T   T
  0.4987991393659499  0.0042326837019289  0.4359228494761567   T   T   T
  0.6813884231767631  0.8289946005805078  0.4742966703009373   T   T   T
  0.7829331405891722  0.8872948741743727  0.4930775785979193   T   T   T
 
  0.00000000E+00  0.00000000E+00  0.00000000E+00
  0.00000000E+00  0.00000000E+00  0.00000000E+00
  0.00000000E+00  0.00000000E+00  0.00000000E+00
  0.00000000E+00  0.00000000E+00  0.00000000E+00
  0.00000000E+00  0.00000000E+00  0.00000000E+00
  0.00000000E+00  0.00000000E+00  0.00000000E+00
  0.00000000E+00  0.00000000E+00  0.00000000E+00
  0.00000000E+00  0.00000000E+00  0.00000000E+00
  0.00000000E+00  0.00000000E+00  0.00000000E+00
  0.00000000E+00  0.00000000E+00  0.00000000E+00
  0.00000000E+00  0.00000000E+00  0.00000000E+00
  0.00000000E+00  0.00000000E+00  0.00000000E+00
  0.00000000E+00  0.00000000E+00  0.00000000E+00
  0.00000000E+00  0.00000000E+00  0.00000000E+00
  0.00000000E+00  0.00000000E+00  0.00000000E+00
  0.00000000E+00  0.00000000E+00  0.00000000E+00
  0.00000000E+00  0.00000000E+00  0.00000000E+00
  0.00000000E+00  0.00000000E+00  0.00000000E+00
  0.00000000E+00  0.00000000E+00  0.00000000E+00
  0.00000000E+00  0.00000000E+00  0.00000000E+00
  0.00000000E+00  0.00000000E+00  0.00000000E+00
  0.00000000E+00  0.00000000E+00  0.00000000E+00
  0.00000000E+00  0.00000000E+00  0.00000000E+00
  0.00000000E+00  0.00000000E+00  0.00000000E+00
  0.00000000E+00  0.00000000E+00  0.00000000E+00
  0.00000000E+00  0.00000000E+00  0.00000000E+00
  0.00000000E+00  0.00000000E+00  0.00000000E+00
  0.00000000E+00  0.00000000E+00  0.00000000E+00
  0.00000000E+00  0.00000000E+00  0.00000000E+00
  0.00000000E+00  0.00000000E+00  0.00000000E+00
  0.00000000E+00  0.00000000E+00  0.00000000E+00
  0.00000000E+00  0.00000000E+00  0.00000000E+00
  0.00000000E+00  0.00000000E+00  0.00000000E+00
  0.00000000E+00  0.00000000E+00  0.00000000E+00
  0.00000000E+00  0.00000000E+00  0.00000000E+00
  0.00000000E+00  0.00000000E+00  0.00000000E+00
  0.00000000E+00  0.00000000E+00  0.00000000E+00
  0.00000000E+00  0.00000000E+00  0.00000000E+00
  0.00000000E+00  0.00000000E+00  0.00000000E+00
  0.00000000E+00  0.00000000E+00  0.00000000E+00
  0.00000000E+00  0.00000000E+00  0.00000000E+00
  0.00000000E+00  0.00000000E+00  0.00000000E+00
  0.00000000E+00  0.00000000E+00  0.00000000E+00
  0.00000000E+00  0.00000000E+00  0.00000000E+00
  0.00000000E+00  0.00000000E+00  0.00000000E+00
  0.00000000E+00  0.00000000E+00  0.00000000E+00
  0.00000000E+00  0.00000000E+00  0.00000000E+00
  0.00000000E+00  0.00000000E+00  0.00000000E+00
  0.00000000E+00  0.00000000E+00  0.00000000E+00
  0.00000000E+00  0.00000000E+00  0.00000000E+00
  0.00000000E+00  0.00000000E+00  0.00000000E+00
  0.00000000E+00  0.00000000E+00  0.00000000E+00
  0.00000000E+00  0.00000000E+00  0.00000000E+00
  0.00000000E+00  0.00000000E+00  0.00000000E+00
  0.00000000E+00  0.00000000E+00  0.00000000E+00
  0.00000000E+00  0.00000000E+00  0.00000000E+00
  0.00000000E+00  0.00000000E+00  0.00000000E+00
  0.00000000E+00  0.00000000E+00  0.00000000E+00
  0.00000000E+00  0.00000000E+00  0.00000000E+00
  0.00000000E+00  0.00000000E+00  0.00000000E+00
  0.00000000E+00  0.00000000E+00  0.00000000E+00
  0.00000000E+00  0.00000000E+00  0.00000000E+00
  0.00000000E+00  0.00000000E+00  0.00000000E+00
  0.00000000E+00  0.00000000E+00  0.00000000E+00
  0.00000000E+00  0.00000000E+00  0.00000000E+00
  0.00000000E+00  0.00000000E+00  0.00000000E+00
  0.00000000E+00  0.00000000E+00  0.00000000E+00
  0.00000000E+00  0.00000000E+00  0.00000000E+00
  0.00000000E+00  0.00000000E+00  0.00000000E+00
  0.00000000E+00  0.00000000E+00  0.00000000E+00
