POSCAR
1.0
    10.02677000     0.00000000     0.00000000
    -5.01338500     8.68343754     0.00000000
     0.00000000     0.00000000    21.18918000
  Ni  Fe  O
  49  15  5
Selective
Direct
     0.99900100     0.00049800     0.28775800   T T T
     0.24920700     0.00113900     0.28545000   T T T
     0.49920600     0.99978900     0.28797600   T T T
     0.74814600     0.99896900     0.28665800   T T T
     0.99941600     0.24887500     0.28720200   T T T
     0.25143100     0.25249200     0.28753300   T T T
     0.08288200     0.16633200     0.09567600   F F F
     0.07966200     0.16073200     0.38502600   T T T
     0.49919200     0.24977100     0.28676800   T T T
     0.33293900     0.16685800     0.09574200   F F F
     0.33227500     0.16719400     0.37915700   T T T
     0.75029100     0.25186300     0.28835600   T T T
     0.58230700     0.16720100     0.09670300   F F F
     0.57937800     0.16026100     0.38441500   T T T
     0.83403200     0.16672400     0.09645100   F F F
     0.83210200     0.16423600     0.37940500   T T T
     0.66558100     0.08305500     0.19258300   F F F
     0.91639700     0.08203100     0.19204900   F F F
     0.00214200     0.50114300     0.28649100   T T T
     0.08092200     0.41609700     0.09594800   F F F
     0.07974600     0.41758500     0.38401100   T T T
     0.16611800     0.33395200     0.19207500   F F F
     0.75121300     0.50099600     0.28631200   T T T
     0.58357300     0.41617200     0.09593300   F F F
     0.58073700     0.41942100     0.38565600   T T T
     0.00121400     0.75169000     0.28644200   T T T
     0.24968400     0.74991400     0.28567000   T T T
     0.08375800     0.66810400     0.09479700   F F F
     0.08239400     0.66315200     0.38342100   T T T
     0.50082200     0.74952200     0.28708100   T T T
     0.33297400     0.66727700     0.09438800   F F F
     0.33295500     0.66575800     0.37905400   T T T
     0.75052400     0.74960100     0.28620400   T T T
     0.58298100     0.66668200     0.09450900   F F F
     0.58111500     0.66116200     0.38549100   T T T
     0.41661000     0.58200200     0.19081700   F F F
     0.83395900     0.66770600     0.09497900   F F F
     0.83365400     0.66583200     0.37903000   T T T
     0.91708300     0.58323900     0.19079400   F F F
     0.08291700     0.91685800     0.09518600   F F F
     0.08149500     0.91852800     0.38397100   T T T
     0.33420600     0.91705400     0.09538200   F F F
     0.33683100     0.91858200     0.38363800   T T T
     0.16670900     0.83524200     0.19136500   F F F
     0.41703500     0.83214900     0.19205900   F F F
     0.83233100     0.91715000     0.09633700   F F F
     0.83833400     0.91856900     0.38421700   T T T
     0.66623900     0.83337000     0.19234100   F F F
     0.91705900     0.83319500     0.19216200   F F F
     0.16168500     0.08211500     0.19130600   F F F
     0.41607500     0.07807100     0.19177300   F F F
     0.24906300     0.49884800     0.28779000   T T T
     0.50574900     0.50269000     0.28955100   T T T
     0.33134100     0.41714300     0.09577600   F F F
     0.33741400     0.41725000     0.38730800   T T T
     0.41638400     0.33144300     0.19252200   F F F
     0.83354800     0.41839000     0.09448800   F F F
     0.83671000     0.41868100     0.38377800   T T T
     0.66732400     0.33240600     0.19435500   F F F
     0.91446400     0.32695500     0.19396500   F F F
     0.16914200     0.58833400     0.18947800   F F F
     0.66961600     0.58928900     0.18986000   F F F
     0.58310400     0.91651500     0.09583500   F F F
     0.58156900     0.91792700     0.38327700   T T T
     0.67031100     0.33199100     0.43664800   T T T
     0.16701600     0.83346000     0.43497500   T T T
     0.16394800     0.33228200     0.43746800   T T T
     0.66723900     0.83720100     0.43644000   T T T
     0.67060152     0.58967503     0.47118236   T T T
