POSCAR                                  
   1.00000000000000     
    10.0267700000000008    0.0000000000000000    0.0000000000000000
    -5.0133850000000004    8.6834375399999999    0.0000000000000000
     0.0000000000000000    0.0000000000000000   21.1891800000000003
   Ni   Fe   O 
    49    15     5
Selective dynamics
Direct
  0.9992990885284478  0.0007113407737555  0.2873529755224533   T   T   T
  0.2495574451618595  0.0023149351109031  0.2850946832585103   T   T   T
  0.4971587999863127  0.9989169937991794  0.2865502391282752   T   T   T
  0.7475305794728611  0.9989870181585044  0.2859931117819682   T   T   T
  0.9989131796471675  0.2486455022593922  0.2869594568713771   T   T   T
  0.2518876616008865  0.2531534734302965  0.2873118494669556   T   T   T
  0.0828819999999979  0.1663319999999970  0.0956759999999974   F   F   F
  0.0796287809183327  0.1610668905367486  0.3845323158380592   T   T   T
  0.5001449205530905  0.2519224885779042  0.2874272039515343   T   T   T
  0.3329390000000032  0.1668579999999977  0.0957420000000013   F   F   F
  0.3318611073305593  0.1674101314692329  0.3789008006679528   T   T   T
  0.7499947017321331  0.2517696937890696  0.2873387331022095   T   T   T
  0.5823070000000001  0.1672009999999986  0.0967029999999980   F   F   F
  0.5760537649441605  0.1550532738162767  0.3820671698129612   T   T   T
  0.8340320000000006  0.1667240000000021  0.0964510000000018   F   F   F
  0.8309175956442585  0.1638478675122642  0.3789337257060963   T   T   T
  0.6655810000000031  0.0830550000000017  0.1925829999999991   F   F   F
  0.9163970000000035  0.0820310000000006  0.1920489999999972   F   F   F
  0.0026445986335337  0.5015104111439341  0.2858997620390163   T   T   T
  0.0809220000000010  0.4160970000000006  0.0959479999999999   F   F   F
  0.0787484510021789  0.4170216705296220  0.3834530486654302   T   T   T
  0.1661179999999973  0.3339519999999965  0.1920750000000027   F   F   F
  0.7521617954657822  0.5021576063774698  0.2876241836523658   T   T   T
  0.5835730000000012  0.4161720000000031  0.0959330000000023   F   F   F
  0.5789576573697037  0.4140023962507391  0.3931030183898722   T   T   T
  0.0004018638167789  0.7517865080333654  0.2867384156119825   T   T   T
  0.2491247379178056  0.7493948977037859  0.2851793587099807   T   T   T
  0.0837580000000031  0.6681039999999996  0.0947969999999998   F   F   F
  0.0814116256145429  0.6624393357891831  0.3822682365170945   T   T   T
  0.5020406689348632  0.7483824907006120  0.2875490290113805   T   T   T
  0.3329740000000001  0.6672769999999986  0.0943880000000021   F   F   F
  0.3316773195294674  0.6643041730602710  0.3783673121460617   T   T   T
  0.7511970242031506  0.7496513905977866  0.2868835798183735   T   T   T
  0.5829809999999966  0.6666820000000016  0.0945090000000022   F   F   F
  0.5771656166016056  0.6632319783176267  0.3920038496220731   T   T   T
  0.4166099999999986  0.5820020000000028  0.1908170000000027   F   F   F
  0.8339590000000001  0.6677060000000026  0.0949790000000021   F   F   F
  0.8377265287332383  0.6689341923035116  0.3836573655260859   T   T   T
  0.9170829999999981  0.5832389999999990  0.1907939999999968   F   F   F
  0.0829170000000019  0.9168579999999977  0.0951859999999982   F   F   F
  0.0820598429954348  0.9195540800034532  0.3831053904050025   T   T   T
  0.3342060000000018  0.9170540000000003  0.0953820000000007   F   F   F
  0.3340644287568253  0.9168885230271810  0.3826005621220239   T   T   T
  0.1667089999999973  0.8352420000000009  0.1913649999999976   F   F   F
  0.4170349999999985  0.8321490000000011  0.1920590000000004   F   F   F
  0.8323310000000035  0.9171499999999995  0.0963369999999983   F   F   F
  0.8393073529360970  0.9228433027535345  0.3832094126234979   T   T   T
  0.6662389999999974  0.8333700000000022  0.1923409999999990   F   F   F
  0.9170590000000018  0.8331950000000035  0.1921620000000033   F   F   F
  0.1616849999999985  0.0821150000000017  0.1913059999999973   F   F   F
  0.4160749999999993  0.0780710000000013  0.1917729999999978   F   F   F
  0.2492187974500411  0.4986260422364457  0.2873968528671612   T   T   T
  0.5073447471102887  0.5031169249037755  0.2908878023173444   T   T   T
  0.3313410000000019  0.4171430000000029  0.0957760000000007   F   F   F
  0.3303306163403561  0.4130303722909324  0.3875548943514865   T   T   T
  0.4163840000000008  0.3314430000000002  0.1925219999999968   F   F   F
  0.8335480000000004  0.4183900000000023  0.0944879999999984   F   F   F
  0.8382614732860669  0.4135179086099099  0.3824551933310241   T   T   T
  0.6673240000000007  0.3324059999999989  0.1943550000000016   F   F   F
  0.9144640000000024  0.3269549999999981  0.1939649999999986   F   F   F
  0.1691420000000008  0.5883340000000032  0.1894780000000011   F   F   F
  0.6696159999999978  0.5892890000000008  0.1898600000000030   F   F   F
  0.5831039999999987  0.9165149999999969  0.0958350000000010   F   F   F
  0.5767751640840934  0.9169279148328500  0.3802778390841312   T   T   T
  0.6746007071887105  0.3163136132198057  0.4362283220993137   T   T   T
  0.1651992658232557  0.8321409006013163  0.4342088409484001   T   T   T
  0.1580501142428951  0.3298368332856799  0.4381004718579205   T   T   T
  0.6703566202524109  0.8560179749732112  0.4357456391206709   T   T   T
  0.6797107546910945  0.5902190951247521  0.4394687013818913   T   T   T
 
  0.00000000E+00  0.00000000E+00  0.00000000E+00
  0.00000000E+00  0.00000000E+00  0.00000000E+00
  0.00000000E+00  0.00000000E+00  0.00000000E+00
  0.00000000E+00  0.00000000E+00  0.00000000E+00
  0.00000000E+00  0.00000000E+00  0.00000000E+00
  0.00000000E+00  0.00000000E+00  0.00000000E+00
  0.00000000E+00  0.00000000E+00  0.00000000E+00
  0.00000000E+00  0.00000000E+00  0.00000000E+00
  0.00000000E+00  0.00000000E+00  0.00000000E+00
  0.00000000E+00  0.00000000E+00  0.00000000E+00
  0.00000000E+00  0.00000000E+00  0.00000000E+00
  0.00000000E+00  0.00000000E+00  0.00000000E+00
  0.00000000E+00  0.00000000E+00  0.00000000E+00
  0.00000000E+00  0.00000000E+00  0.00000000E+00
  0.00000000E+00  0.00000000E+00  0.00000000E+00
  0.00000000E+00  0.00000000E+00  0.00000000E+00
  0.00000000E+00  0.00000000E+00  0.00000000E+00
  0.00000000E+00  0.00000000E+00  0.00000000E+00
  0.00000000E+00  0.00000000E+00  0.00000000E+00
  0.00000000E+00  0.00000000E+00  0.00000000E+00
  0.00000000E+00  0.00000000E+00  0.00000000E+00
  0.00000000E+00  0.00000000E+00  0.00000000E+00
  0.00000000E+00  0.00000000E+00  0.00000000E+00
  0.00000000E+00  0.00000000E+00  0.00000000E+00
  0.00000000E+00  0.00000000E+00  0.00000000E+00
  0.00000000E+00  0.00000000E+00  0.00000000E+00
  0.00000000E+00  0.00000000E+00  0.00000000E+00
  0.00000000E+00  0.00000000E+00  0.00000000E+00
  0.00000000E+00  0.00000000E+00  0.00000000E+00
  0.00000000E+00  0.00000000E+00  0.00000000E+00
  0.00000000E+00  0.00000000E+00  0.00000000E+00
  0.00000000E+00  0.00000000E+00  0.00000000E+00
  0.00000000E+00  0.00000000E+00  0.00000000E+00
  0.00000000E+00  0.00000000E+00  0.00000000E+00
  0.00000000E+00  0.00000000E+00  0.00000000E+00
  0.00000000E+00  0.00000000E+00  0.00000000E+00
  0.00000000E+00  0.00000000E+00  0.00000000E+00
  0.00000000E+00  0.00000000E+00  0.00000000E+00
  0.00000000E+00  0.00000000E+00  0.00000000E+00
  0.00000000E+00  0.00000000E+00  0.00000000E+00
  0.00000000E+00  0.00000000E+00  0.00000000E+00
  0.00000000E+00  0.00000000E+00  0.00000000E+00
  0.00000000E+00  0.00000000E+00  0.00000000E+00
  0.00000000E+00  0.00000000E+00  0.00000000E+00
  0.00000000E+00  0.00000000E+00  0.00000000E+00
  0.00000000E+00  0.00000000E+00  0.00000000E+00
  0.00000000E+00  0.00000000E+00  0.00000000E+00
  0.00000000E+00  0.00000000E+00  0.00000000E+00
  0.00000000E+00  0.00000000E+00  0.00000000E+00
  0.00000000E+00  0.00000000E+00  0.00000000E+00
  0.00000000E+00  0.00000000E+00  0.00000000E+00
  0.00000000E+00  0.00000000E+00  0.00000000E+00
  0.00000000E+00  0.00000000E+00  0.00000000E+00
  0.00000000E+00  0.00000000E+00  0.00000000E+00
  0.00000000E+00  0.00000000E+00  0.00000000E+00
  0.00000000E+00  0.00000000E+00  0.00000000E+00
  0.00000000E+00  0.00000000E+00  0.00000000E+00
  0.00000000E+00  0.00000000E+00  0.00000000E+00
  0.00000000E+00  0.00000000E+00  0.00000000E+00
  0.00000000E+00  0.00000000E+00  0.00000000E+00
  0.00000000E+00  0.00000000E+00  0.00000000E+00
  0.00000000E+00  0.00000000E+00  0.00000000E+00
  0.00000000E+00  0.00000000E+00  0.00000000E+00
  0.00000000E+00  0.00000000E+00  0.00000000E+00
  0.00000000E+00  0.00000000E+00  0.00000000E+00
  0.00000000E+00  0.00000000E+00  0.00000000E+00
  0.00000000E+00  0.00000000E+00  0.00000000E+00
  0.00000000E+00  0.00000000E+00  0.00000000E+00
  0.00000000E+00  0.00000000E+00  0.00000000E+00
