POSCAR                                  
   3.54500000000000     
     0.5000000000000000    0.5000000000000000   -1.0000000000000000
     0.0000000000000000   -1.5000000000000000   -0.5000000000000000
    -2.0000000000000000    0.5000000000000000   -0.5000000000000000
   Ni   Fe
    12     4
Direct
  0.2608938388767683  0.6895015512397862  0.8141943372789768
  0.9999298500388321  0.2499301545107357  0.7522775676363906
  0.2499316495256423  0.9385312397371095  0.5614949104724616
  0.0000725802481298  0.4989733053451531  0.5010045115297501
  0.9891041703233370  0.7480000611354143  0.2483160591675926
  0.7533900190354288  0.8138183317162770  0.6857214008815617
  0.4983508544087627  0.3744295528015087  0.6252724638798881
  0.4966026675068420  0.6236712896555687  0.3767733463230911
  0.2500765840136907  0.1875761367079960  0.3102210842474662
  0.2557908467564971  0.4372767086507920  0.0616983798651702
  0.9942013009854094  0.0002247442920762  0.0008007029140487
  0.7516435610172891  0.0630727429668383  0.4372291915814444
  0.7640306496941349  0.5689593034584703  0.9306693165437281
  0.4957590601205979  0.1220667150154000  0.8699739774699538
  0.4859672902691230  0.8685359720440857  0.1318235675824440
  0.7542550771795078  0.3154321907227811  0.1925291826260320
 
  0.00000000E+00  0.00000000E+00  0.00000000E+00
  0.00000000E+00  0.00000000E+00  0.00000000E+00
  0.00000000E+00  0.00000000E+00  0.00000000E+00
  0.00000000E+00  0.00000000E+00  0.00000000E+00
  0.00000000E+00  0.00000000E+00  0.00000000E+00
  0.00000000E+00  0.00000000E+00  0.00000000E+00
  0.00000000E+00  0.00000000E+00  0.00000000E+00
  0.00000000E+00  0.00000000E+00  0.00000000E+00
  0.00000000E+00  0.00000000E+00  0.00000000E+00
  0.00000000E+00  0.00000000E+00  0.00000000E+00
  0.00000000E+00  0.00000000E+00  0.00000000E+00
  0.00000000E+00  0.00000000E+00  0.00000000E+00
  0.00000000E+00  0.00000000E+00  0.00000000E+00
  0.00000000E+00  0.00000000E+00  0.00000000E+00
  0.00000000E+00  0.00000000E+00  0.00000000E+00
  0.00000000E+00  0.00000000E+00  0.00000000E+00
