POSCAR                                  
   1.00000000000000     
    10.0267700000000008    0.0000000000000000    0.0000000000000000
    -5.0133850000000004    8.6834375399999999    0.0000000000000000
     0.0000000000000000    0.0000000000000000   21.1891800000000003
   Ni   Fe   O 
    49    15     5
Selective dynamics
Direct
  0.9993547597693819  0.0007940163366413  0.2873578318729031   T   T   T
  0.2495235329220691  0.0023857321121241  0.2851421071533835   T   T   T
  0.4971628903337191  0.9988333506453202  0.2865710736987523   T   T   T
  0.7475071662362751  0.9989584546594656  0.2860685008595212   T   T   T
  0.9989396626181417  0.2487071201557356  0.2870298147087169   T   T   T
  0.2519707672517342  0.2531253654339736  0.2873772540187005   T   T   T
  0.0828819999999979  0.1663319999999970  0.0956759999999974   F   F   F
  0.0796233792091599  0.1610693794972207  0.3845338520834289   T   T   T
  0.5000301903327795  0.2519283950002702  0.2874837993909622   T   T   T
  0.3329390000000032  0.1668579999999977  0.0957420000000013   F   F   F
  0.3318646181824292  0.1673794595215057  0.3789133212558866   T   T   T
  0.7499623967469162  0.2518198424325462  0.2874168712060552   T   T   T
  0.5823070000000001  0.1672009999999986  0.0967029999999980   F   F   F
  0.5762139721188078  0.1553260661262215  0.3821177835341132   T   T   T
  0.8340320000000006  0.1667240000000021  0.0964510000000018   F   F   F
  0.8310536789211156  0.1639484493628913  0.3789128342264192   T   T   T
  0.6655810000000031  0.0830550000000017  0.1925829999999991   F   F   F
  0.9163970000000035  0.0820310000000006  0.1920489999999972   F   F   F
  0.0026558774780128  0.5015002148125092  0.2858936142159294   T   T   T
  0.0809220000000010  0.4160970000000006  0.0959479999999999   F   F   F
  0.0787994138919643  0.4170191938977226  0.3834880489058179   T   T   T
  0.1661179999999973  0.3339519999999965  0.1920750000000027   F   F   F
  0.7521648822805318  0.5022175826114434  0.2877215010408136   T   T   T
  0.5835730000000012  0.4161720000000031  0.0959330000000023   F   F   F
  0.5788766119567512  0.4138610449657563  0.3931171366360644   T   T   T
  0.0004168639925197  0.7517696613007629  0.2867807400763098   T   T   T
  0.2490811960572898  0.7494106661748461  0.2852012429936863   T   T   T
  0.0837580000000031  0.6681039999999996  0.0947969999999998   F   F   F
  0.0814221331367904  0.6626105428024402  0.3822693450662698   T   T   T
  0.5021224904127308  0.7484766189297787  0.2875835548438346   T   T   T
  0.3329740000000001  0.6672769999999986  0.0943880000000021   F   F   F
  0.3316530261895281  0.6642983719147395  0.3783844390799160   T   T   T
  0.7512217513540875  0.7496288187165803  0.2869526719641939   T   T   T
  0.5829809999999966  0.6666820000000016  0.0945090000000022   F   F   F
  0.5771078200668143  0.6633084549723591  0.3919952222243239   T   T   T
  0.4166099999999986  0.5820020000000028  0.1908170000000027   F   F   F
  0.8339590000000001  0.6677060000000026  0.0949790000000021   F   F   F
  0.8379045124495264  0.6690897101144202  0.3837262971370379   T   T   T
  0.9170829999999981  0.5832389999999990  0.1907939999999968   F   F   F
  0.0829170000000019  0.9168579999999977  0.0951859999999982   F   F   F
  0.0821447505706701  0.9195600447641183  0.3831386860329928   T   T   T
  0.3342060000000018  0.9170540000000003  0.0953820000000007   F   F   F
  0.3340552233550298  0.9168535835812719  0.3826155573652628   T   T   T
  0.1667089999999973  0.8352420000000009  0.1913649999999976   F   F   F
  0.4170349999999985  0.8321490000000011  0.1920590000000004   F   F   F
  0.8323310000000035  0.9171499999999995  0.0963369999999983   F   F   F
  0.8393157061971053  0.9228304072869022  0.3832611271426813   T   T   T
  0.6662389999999974  0.8333700000000022  0.1923409999999990   F   F   F
  0.9170590000000018  0.8331950000000035  0.1921620000000033   F   F   F
  0.1616849999999985  0.0821150000000017  0.1913059999999973   F   F   F
  0.4160749999999993  0.0780710000000013  0.1917729999999978   F   F   F
  0.2493155099998461  0.4987260091117278  0.2874119210143178   T   T   T
  0.5073155738152550  0.5030807966770467  0.2909187494295224   T   T   T
  0.3313410000000019  0.4171430000000029  0.0957760000000007   F   F   F
  0.3302172171120361  0.4129440426109809  0.3875449653616414   T   T   T
  0.4163840000000008  0.3314430000000002  0.1925219999999968   F   F   F
  0.8335480000000004  0.4183900000000023  0.0944879999999984   F   F   F
  0.8381286082669277  0.4134584689032650  0.3825376666609941   T   T   T
  0.6673240000000007  0.3324059999999989  0.1943550000000016   F   F   F
  0.9144640000000024  0.3269549999999981  0.1939649999999986   F   F   F
  0.1691420000000008  0.5883340000000032  0.1894780000000011   F   F   F
  0.6696159999999978  0.5892890000000008  0.1898600000000030   F   F   F
  0.5831039999999987  0.9165149999999969  0.0958350000000010   F   F   F
  0.5767701491980546  0.9168474406149514  0.3803090406906833   T   T   T
  0.6746821348181342  0.3163739983207066  0.4361216453807302   T   T   T
  0.1650491525067110  0.8320621390782037  0.4341626090015041   T   T   T
  0.1581744834933616  0.3298801486163114  0.4381117894371940   T   T   T
  0.6703797997937784  0.8560328515654945  0.4356937558404823   T   T   T
  0.6796526022336593  0.5902182365216007  0.4394669223123842   T   T   T
 
  0.00000000E+00  0.00000000E+00  0.00000000E+00
  0.00000000E+00  0.00000000E+00  0.00000000E+00
  0.00000000E+00  0.00000000E+00  0.00000000E+00
  0.00000000E+00  0.00000000E+00  0.00000000E+00
  0.00000000E+00  0.00000000E+00  0.00000000E+00
  0.00000000E+00  0.00000000E+00  0.00000000E+00
  0.00000000E+00  0.00000000E+00  0.00000000E+00
  0.00000000E+00  0.00000000E+00  0.00000000E+00
  0.00000000E+00  0.00000000E+00  0.00000000E+00
  0.00000000E+00  0.00000000E+00  0.00000000E+00
  0.00000000E+00  0.00000000E+00  0.00000000E+00
  0.00000000E+00  0.00000000E+00  0.00000000E+00
  0.00000000E+00  0.00000000E+00  0.00000000E+00
  0.00000000E+00  0.00000000E+00  0.00000000E+00
  0.00000000E+00  0.00000000E+00  0.00000000E+00
  0.00000000E+00  0.00000000E+00  0.00000000E+00
  0.00000000E+00  0.00000000E+00  0.00000000E+00
  0.00000000E+00  0.00000000E+00  0.00000000E+00
  0.00000000E+00  0.00000000E+00  0.00000000E+00
  0.00000000E+00  0.00000000E+00  0.00000000E+00
  0.00000000E+00  0.00000000E+00  0.00000000E+00
  0.00000000E+00  0.00000000E+00  0.00000000E+00
  0.00000000E+00  0.00000000E+00  0.00000000E+00
  0.00000000E+00  0.00000000E+00  0.00000000E+00
  0.00000000E+00  0.00000000E+00  0.00000000E+00
  0.00000000E+00  0.00000000E+00  0.00000000E+00
  0.00000000E+00  0.00000000E+00  0.00000000E+00
  0.00000000E+00  0.00000000E+00  0.00000000E+00
  0.00000000E+00  0.00000000E+00  0.00000000E+00
  0.00000000E+00  0.00000000E+00  0.00000000E+00
  0.00000000E+00  0.00000000E+00  0.00000000E+00
  0.00000000E+00  0.00000000E+00  0.00000000E+00
  0.00000000E+00  0.00000000E+00  0.00000000E+00
  0.00000000E+00  0.00000000E+00  0.00000000E+00
  0.00000000E+00  0.00000000E+00  0.00000000E+00
  0.00000000E+00  0.00000000E+00  0.00000000E+00
  0.00000000E+00  0.00000000E+00  0.00000000E+00
  0.00000000E+00  0.00000000E+00  0.00000000E+00
  0.00000000E+00  0.00000000E+00  0.00000000E+00
  0.00000000E+00  0.00000000E+00  0.00000000E+00
  0.00000000E+00  0.00000000E+00  0.00000000E+00
  0.00000000E+00  0.00000000E+00  0.00000000E+00
  0.00000000E+00  0.00000000E+00  0.00000000E+00
  0.00000000E+00  0.00000000E+00  0.00000000E+00
  0.00000000E+00  0.00000000E+00  0.00000000E+00
  0.00000000E+00  0.00000000E+00  0.00000000E+00
  0.00000000E+00  0.00000000E+00  0.00000000E+00
  0.00000000E+00  0.00000000E+00  0.00000000E+00
  0.00000000E+00  0.00000000E+00  0.00000000E+00
  0.00000000E+00  0.00000000E+00  0.00000000E+00
  0.00000000E+00  0.00000000E+00  0.00000000E+00
  0.00000000E+00  0.00000000E+00  0.00000000E+00
  0.00000000E+00  0.00000000E+00  0.00000000E+00
  0.00000000E+00  0.00000000E+00  0.00000000E+00
  0.00000000E+00  0.00000000E+00  0.00000000E+00
  0.00000000E+00  0.00000000E+00  0.00000000E+00
  0.00000000E+00  0.00000000E+00  0.00000000E+00
  0.00000000E+00  0.00000000E+00  0.00000000E+00
  0.00000000E+00  0.00000000E+00  0.00000000E+00
  0.00000000E+00  0.00000000E+00  0.00000000E+00
  0.00000000E+00  0.00000000E+00  0.00000000E+00
  0.00000000E+00  0.00000000E+00  0.00000000E+00
  0.00000000E+00  0.00000000E+00  0.00000000E+00
  0.00000000E+00  0.00000000E+00  0.00000000E+00
  0.00000000E+00  0.00000000E+00  0.00000000E+00
  0.00000000E+00  0.00000000E+00  0.00000000E+00
  0.00000000E+00  0.00000000E+00  0.00000000E+00
  0.00000000E+00  0.00000000E+00  0.00000000E+00
  0.00000000E+00  0.00000000E+00  0.00000000E+00
