POSCAR                                  
   1.00000000000000     
     9.9295008700000000    0.0000000000000000    0.0000000000000000
     3.3098336200000000    9.3616232000000004    0.0000000000000000
     0.0000000000000000    0.0000000000000000   21.0805526299999997
   Fe
    64
Selective dynamics
Direct
  0.0873888899999997  0.1626111100000003  0.0948741699999971   F   F   F
  0.0869354671514840  0.1628552078715946  0.2850622229401544   T   T   T
  0.2123888899999997  0.0376111100000003  0.1910220700000025   F   F   F
  0.2117378516768108  0.0371408944735380  0.3781641661183095   T   T   T
  0.3373888899999997  0.1626111100000003  0.0948741699999971   F   F   F
  0.3369554786483100  0.1629814410944704  0.2847017455500312   T   T   T
  0.4623888899999997  0.0376111100000003  0.1910220700000025   F   F   F
  0.4616977418323318  0.0376529231107973  0.3774884855137393   T   T   T
  0.5873888899999997  0.1626111100000003  0.0948741699999971   F   F   F
  0.5868950882827271  0.1630785301611613  0.2844365029012377   T   T   T
  0.7123888899999997  0.0376111100000003  0.1910220700000025   F   F   F
  0.7112767612890761  0.0388033951358315  0.3781400740531052   T   T   T
  0.8373888899999997  0.1626111100000003  0.0948741699999971   F   F   F
  0.8367855797531177  0.1634400129661682  0.2845529967273910   T   T   T
  0.9623888899999997  0.0376111100000003  0.1910220700000025   F   F   F
  0.9616982301921636  0.0381361325328825  0.3780194621692677   T   T   T
  0.0873888899999997  0.4126111100000003  0.0948741699999971   F   F   F
  0.0876323493982508  0.4122714165702505  0.2844879779445084   T   T   T
  0.2123888899999997  0.2876111100000003  0.1910220700000025   F   F   F
  0.2123144013138044  0.2868498136758044  0.3780462750636654   T   T   T
  0.3373888899999997  0.4126111100000003  0.0948741699999971   F   F   F
  0.3379035236328494  0.4121177138173947  0.2842038585656950   T   T   T
  0.4623888899999997  0.2876111100000003  0.1910220700000025   F   F   F
  0.4626569988681468  0.2879961999252034  0.3778715894232777   T   T   T
  0.5873888899999997  0.4126111100000003  0.0948741699999971   F   F   F
  0.5873907139803596  0.4129186672154770  0.2840857335557514   T   T   T
  0.7123888899999997  0.2876111100000003  0.1910220700000025   F   F   F
  0.7119520808814800  0.2882581456653406  0.3776849366791801   T   T   T
  0.8373888899999997  0.4126111100000003  0.0948741699999971   F   F   F
  0.8370850252385375  0.4130697673146755  0.2845486620474063   T   T   T
  0.9623888899999997  0.2876111100000003  0.1910220700000025   F   F   F
  0.9623178462736656  0.2883477713805296  0.3775740283298811   T   T   T
  0.0873888899999997  0.6626111100000003  0.0948741699999971   F   F   F
  0.0879797599021564  0.6619633216931111  0.2850020779979232   T   T   T
  0.2123888899999997  0.5376111100000003  0.1910220700000025   F   F   F
  0.2127874110725365  0.5365046884988887  0.3777299035373913   T   T   T
  0.3373888899999997  0.6626111100000003  0.0948741699999971   F   F   F
  0.3381365398214033  0.6614698987229931  0.2844485673732073   T   T   T
  0.4623888899999997  0.5376111100000003  0.1910220700000025   F   F   F
  0.4625743976565056  0.5373705568295373  0.3777866391188074   T   T   T
  0.5873888899999997  0.6626111100000003  0.0948741699999971   F   F   F
  0.5876886678797463  0.6625739317162594  0.2844867288870003   T   T   T
  0.7123888899999997  0.5376111100000003  0.1910220700000025   F   F   F
  0.7124030143513552  0.5379232586036874  0.3777972783543672   T   T   T
  0.8373888899999997  0.6626111100000003  0.0948741699999971   F   F   F
  0.8377873090443875  0.6624025351161249  0.2847175972339189   T   T   T
  0.9623888899999997  0.5376111100000003  0.1910220700000025   F   F   F
  0.9628525571399084  0.5376230051810369  0.3779416343155830   T   T   T
  0.0873888899999997  0.9126111100000003  0.0948741699999971   F   F   F
  0.0873262034947769  0.9124995591468807  0.2854511921424644   T   T   T
  0.2123888899999997  0.7876111100000003  0.1910220700000025   F   F   F
  0.2131909864495964  0.7867952875302717  0.3777648516320199   T   T   T
  0.3373888899999997  0.9126111100000003  0.0948741699999971   F   F   F
  0.3376254439377711  0.9122124370989342  0.2850878353932520   T   T   T
  0.4623888899999997  0.7876111100000003  0.1910220700000025   F   F   F
  0.4635466889278828  0.7867732554748325  0.3780769386916185   T   T   T
  0.5873888899999997  0.9126111100000003  0.0948741699999971   F   F   F
  0.5872671263936116  0.9128133436221950  0.2850684123352172   T   T   T
  0.7123888899999997  0.7876111100000003  0.1910220700000025   F   F   F
  0.7125855167290143  0.7876966142338827  0.3777589269173366   T   T   T
  0.8373888899999997  0.9126111100000003  0.0948741699999971   F   F   F
  0.8370182163063173  0.9129144497512205  0.2852302089669402   T   T   T
  0.9623888899999997  0.7876111100000003  0.1910220700000025   F   F   F
  0.9628090268877976  0.7876528915890412  0.3781741885215497   T   T   T
 
  0.00000000E+00  0.00000000E+00  0.00000000E+00
  0.00000000E+00  0.00000000E+00  0.00000000E+00
  0.00000000E+00  0.00000000E+00  0.00000000E+00
  0.00000000E+00  0.00000000E+00  0.00000000E+00
  0.00000000E+00  0.00000000E+00  0.00000000E+00
  0.00000000E+00  0.00000000E+00  0.00000000E+00
  0.00000000E+00  0.00000000E+00  0.00000000E+00
  0.00000000E+00  0.00000000E+00  0.00000000E+00
  0.00000000E+00  0.00000000E+00  0.00000000E+00
  0.00000000E+00  0.00000000E+00  0.00000000E+00
  0.00000000E+00  0.00000000E+00  0.00000000E+00
  0.00000000E+00  0.00000000E+00  0.00000000E+00
  0.00000000E+00  0.00000000E+00  0.00000000E+00
  0.00000000E+00  0.00000000E+00  0.00000000E+00
  0.00000000E+00  0.00000000E+00  0.00000000E+00
  0.00000000E+00  0.00000000E+00  0.00000000E+00
  0.00000000E+00  0.00000000E+00  0.00000000E+00
  0.00000000E+00  0.00000000E+00  0.00000000E+00
  0.00000000E+00  0.00000000E+00  0.00000000E+00
  0.00000000E+00  0.00000000E+00  0.00000000E+00
  0.00000000E+00  0.00000000E+00  0.00000000E+00
  0.00000000E+00  0.00000000E+00  0.00000000E+00
  0.00000000E+00  0.00000000E+00  0.00000000E+00
  0.00000000E+00  0.00000000E+00  0.00000000E+00
  0.00000000E+00  0.00000000E+00  0.00000000E+00
  0.00000000E+00  0.00000000E+00  0.00000000E+00
  0.00000000E+00  0.00000000E+00  0.00000000E+00
  0.00000000E+00  0.00000000E+00  0.00000000E+00
  0.00000000E+00  0.00000000E+00  0.00000000E+00
  0.00000000E+00  0.00000000E+00  0.00000000E+00
  0.00000000E+00  0.00000000E+00  0.00000000E+00
  0.00000000E+00  0.00000000E+00  0.00000000E+00
  0.00000000E+00  0.00000000E+00  0.00000000E+00
  0.00000000E+00  0.00000000E+00  0.00000000E+00
  0.00000000E+00  0.00000000E+00  0.00000000E+00
  0.00000000E+00  0.00000000E+00  0.00000000E+00
  0.00000000E+00  0.00000000E+00  0.00000000E+00
  0.00000000E+00  0.00000000E+00  0.00000000E+00
  0.00000000E+00  0.00000000E+00  0.00000000E+00
  0.00000000E+00  0.00000000E+00  0.00000000E+00
  0.00000000E+00  0.00000000E+00  0.00000000E+00
  0.00000000E+00  0.00000000E+00  0.00000000E+00
  0.00000000E+00  0.00000000E+00  0.00000000E+00
  0.00000000E+00  0.00000000E+00  0.00000000E+00
  0.00000000E+00  0.00000000E+00  0.00000000E+00
  0.00000000E+00  0.00000000E+00  0.00000000E+00
  0.00000000E+00  0.00000000E+00  0.00000000E+00
  0.00000000E+00  0.00000000E+00  0.00000000E+00
  0.00000000E+00  0.00000000E+00  0.00000000E+00
  0.00000000E+00  0.00000000E+00  0.00000000E+00
  0.00000000E+00  0.00000000E+00  0.00000000E+00
  0.00000000E+00  0.00000000E+00  0.00000000E+00
  0.00000000E+00  0.00000000E+00  0.00000000E+00
  0.00000000E+00  0.00000000E+00  0.00000000E+00
  0.00000000E+00  0.00000000E+00  0.00000000E+00
  0.00000000E+00  0.00000000E+00  0.00000000E+00
  0.00000000E+00  0.00000000E+00  0.00000000E+00
  0.00000000E+00  0.00000000E+00  0.00000000E+00
  0.00000000E+00  0.00000000E+00  0.00000000E+00
  0.00000000E+00  0.00000000E+00  0.00000000E+00
  0.00000000E+00  0.00000000E+00  0.00000000E+00
  0.00000000E+00  0.00000000E+00  0.00000000E+00
  0.00000000E+00  0.00000000E+00  0.00000000E+00
  0.00000000E+00  0.00000000E+00  0.00000000E+00
