POSCAR                                  
   1.00000000000000     
    10.1116299999999999    0.0000000000000000    0.0000000000000000
    -5.0558149999999999    8.7569284500000002    0.0000000000000000
     0.0000000000000000    0.0000000000000000   21.3136181499999999
   Fe   Ni
    47    17
Selective dynamics
Direct
  0.0019470000000013  0.9992000000000019  0.1950471099999973   F   F   F
  0.4988060000000019  0.9964760000000012  0.1943646799999996   F   F   F
  0.7431600000000032  0.9964590000000015  0.1926537900000014   F   F   F
  0.2491360000000000  0.2532259999999980  0.1950282299999984   F   F   F
  0.0827244934789917  0.1677467417592737  0.2933996617110424   T   T   T
  0.3353143732552937  0.1673557747208676  0.2908862616781818   T   T   T
  0.1676629999999975  0.0809440000000023  0.0947608700000018   F   F   F
  0.1649343446974356  0.0823341308794667  0.3926574965981828   T   T   T
  0.5915217125674559  0.1698618172244579  0.2901965595330580   T   T   T
  0.4220779999999991  0.0874250000000032  0.0945996299999976   F   F   F
  0.4154081375843646  0.0864166306513710  0.3896382266342329   T   T   T
  0.8369502126418382  0.1663683190179484  0.2899430946313331   T   T   T
  0.6673759999999973  0.0832770000000025  0.0966591399999999   F   F   F
  0.6677836775088082  0.0887319753588685  0.3902318889622478   T   T   T
  0.0032080000000008  0.5109089999999981  0.1927363000000000   F   F   F
  0.2558689999999970  0.5057770000000019  0.1955630799999994   F   F   F
  0.4996020000000030  0.5030489999999972  0.1957571499999986   F   F   F
  0.3331695051863051  0.4194741961228274  0.2958914616401032   T   T   T
  0.7567909999999998  0.5080430000000007  0.1945282399999968   F   F   F
  0.5827831785427549  0.4160510275417337  0.2940307916242517   T   T   T
  0.4203279999999978  0.3267179999999996  0.0953032800000031   F   F   F
  0.4128916173990902  0.3340647288389391  0.3945879881280518   T   T   T
  0.8382131101367847  0.4200797155312799  0.2922446488123640   T   T   T
  0.6624929999999978  0.3354240000000033  0.0938367199999988   F   F   F
  0.6631360435036839  0.3320773242763480  0.3911987859239900   T   T   T
  0.9918059999999969  0.7470280000000002  0.1939332500000006   F   F   F
  0.2510460000000023  0.7456389999999971  0.1952536699999996   F   F   F
  0.0873116630624935  0.6669960718472083  0.2939587862575834   T   T   T
  0.5015369999999990  0.7490570000000005  0.1957449499999981   F   F   F
  0.3418989081292736  0.6711688629897736  0.2950242689186027   T   T   T
  0.1640700000000024  0.5890419999999992  0.0986219099999985   F   F   F
  0.1672694316564218  0.5760328801394081  0.3888812941295257   T   T   T
  0.7477749999999972  0.7486310000000032  0.1922688499999978   F   F   F
  0.5900725273441338  0.6705186696018117  0.2949586222570346   T   T   T
  0.8345911583129961  0.6700780060627167  0.2946769683231523   T   T   T
  0.6721440000000030  0.5852939999999975  0.0961759999999998   F   F   F
  0.6674248129668925  0.5851383961814847  0.3954538655959965   T   T   T
  0.9190749999999994  0.5873309999999989  0.0979173899999992   F   F   F
  0.9184129005908019  0.5841204690591582  0.3939672710852236   T   T   T
  0.0864465251147450  0.9188058657416533  0.2921603379440896   T   T   T
  0.3402539830803164  0.9171991969238249  0.2920077520178310   T   T   T
  0.1627429999999990  0.8315359999999998  0.0945450099999974   F   F   F
  0.1616673375101811  0.8296193488548980  0.3916968550601396   T   T   T
  0.6687829999999977  0.8308299999999988  0.0995390900000004   F   F   F
  0.6618446034878218  0.8368211095819404  0.3888637761140146   T   T   T
  0.9185230000000004  0.8270600000000030  0.0980696299999977   F   F   F
  0.9138283785980548  0.8364797584912864  0.3898971755153227   T   T   T
  0.2491649999999979  0.9981310000000008  0.1938187800000009   F   F   F
  0.0012970000000010  0.2497419999999977  0.1948042400000034   F   F   F
  0.4993309999999980  0.2516269999999992  0.1935936300000023   F   F   F
  0.7494420000000019  0.2507129999999975  0.1939509700000031   F   F   F
  0.9142409999999970  0.0792939999999973  0.0968584399999983   F   F   F
  0.9142931153765872  0.0855279464561605  0.3873213059792491   T   T   T
  0.0840915889942124  0.4173636254936852  0.2899342099549429   T   T   T
  0.1707729999999970  0.3343709999999973  0.0969322300000002   F   F   F
  0.1638064660578067  0.3294807817281438  0.3873489713967686   T   T   T
  0.9156699999999987  0.3364639999999994  0.0964531600000029   F   F   F
  0.9165289452843481  0.3341646418090392  0.3853145905015865   T   T   T
  0.4192359999999979  0.5847150000000028  0.0972468699999993   F   F   F
  0.4162874365378855  0.5828861830651846  0.3908714755127889   T   T   T
  0.5887057006554102  0.9208824691032120  0.2938658545836574   T   T   T
  0.4146700000000010  0.8342889999999983  0.0974859700000010   F   F   F
  0.4146746148629745  0.8334827754215866  0.3880503126065875   T   T   T
  0.8332757439557810  0.9198144354907356  0.2917063597817346   T   T   T
 
  0.00000000E+00  0.00000000E+00  0.00000000E+00
  0.00000000E+00  0.00000000E+00  0.00000000E+00
  0.00000000E+00  0.00000000E+00  0.00000000E+00
  0.00000000E+00  0.00000000E+00  0.00000000E+00
  0.00000000E+00  0.00000000E+00  0.00000000E+00
  0.00000000E+00  0.00000000E+00  0.00000000E+00
  0.00000000E+00  0.00000000E+00  0.00000000E+00
  0.00000000E+00  0.00000000E+00  0.00000000E+00
  0.00000000E+00  0.00000000E+00  0.00000000E+00
  0.00000000E+00  0.00000000E+00  0.00000000E+00
  0.00000000E+00  0.00000000E+00  0.00000000E+00
  0.00000000E+00  0.00000000E+00  0.00000000E+00
  0.00000000E+00  0.00000000E+00  0.00000000E+00
  0.00000000E+00  0.00000000E+00  0.00000000E+00
  0.00000000E+00  0.00000000E+00  0.00000000E+00
  0.00000000E+00  0.00000000E+00  0.00000000E+00
  0.00000000E+00  0.00000000E+00  0.00000000E+00
  0.00000000E+00  0.00000000E+00  0.00000000E+00
  0.00000000E+00  0.00000000E+00  0.00000000E+00
  0.00000000E+00  0.00000000E+00  0.00000000E+00
  0.00000000E+00  0.00000000E+00  0.00000000E+00
  0.00000000E+00  0.00000000E+00  0.00000000E+00
  0.00000000E+00  0.00000000E+00  0.00000000E+00
  0.00000000E+00  0.00000000E+00  0.00000000E+00
  0.00000000E+00  0.00000000E+00  0.00000000E+00
  0.00000000E+00  0.00000000E+00  0.00000000E+00
  0.00000000E+00  0.00000000E+00  0.00000000E+00
  0.00000000E+00  0.00000000E+00  0.00000000E+00
  0.00000000E+00  0.00000000E+00  0.00000000E+00
  0.00000000E+00  0.00000000E+00  0.00000000E+00
  0.00000000E+00  0.00000000E+00  0.00000000E+00
  0.00000000E+00  0.00000000E+00  0.00000000E+00
  0.00000000E+00  0.00000000E+00  0.00000000E+00
  0.00000000E+00  0.00000000E+00  0.00000000E+00
  0.00000000E+00  0.00000000E+00  0.00000000E+00
  0.00000000E+00  0.00000000E+00  0.00000000E+00
  0.00000000E+00  0.00000000E+00  0.00000000E+00
  0.00000000E+00  0.00000000E+00  0.00000000E+00
  0.00000000E+00  0.00000000E+00  0.00000000E+00
  0.00000000E+00  0.00000000E+00  0.00000000E+00
  0.00000000E+00  0.00000000E+00  0.00000000E+00
  0.00000000E+00  0.00000000E+00  0.00000000E+00
  0.00000000E+00  0.00000000E+00  0.00000000E+00
  0.00000000E+00  0.00000000E+00  0.00000000E+00
  0.00000000E+00  0.00000000E+00  0.00000000E+00
  0.00000000E+00  0.00000000E+00  0.00000000E+00
  0.00000000E+00  0.00000000E+00  0.00000000E+00
  0.00000000E+00  0.00000000E+00  0.00000000E+00
  0.00000000E+00  0.00000000E+00  0.00000000E+00
  0.00000000E+00  0.00000000E+00  0.00000000E+00
  0.00000000E+00  0.00000000E+00  0.00000000E+00
  0.00000000E+00  0.00000000E+00  0.00000000E+00
  0.00000000E+00  0.00000000E+00  0.00000000E+00
  0.00000000E+00  0.00000000E+00  0.00000000E+00
  0.00000000E+00  0.00000000E+00  0.00000000E+00
  0.00000000E+00  0.00000000E+00  0.00000000E+00
  0.00000000E+00  0.00000000E+00  0.00000000E+00
  0.00000000E+00  0.00000000E+00  0.00000000E+00
  0.00000000E+00  0.00000000E+00  0.00000000E+00
  0.00000000E+00  0.00000000E+00  0.00000000E+00
  0.00000000E+00  0.00000000E+00  0.00000000E+00
  0.00000000E+00  0.00000000E+00  0.00000000E+00
  0.00000000E+00  0.00000000E+00  0.00000000E+00
  0.00000000E+00  0.00000000E+00  0.00000000E+00
