POSCAR                                  
   3.57500000000000     
     0.5000000000000000    0.5000000000000000   -1.0000000000000000
     0.0000000000000000   -1.5000000000000002   -0.5000000000000000
    -2.0000000000000000    0.5000000000000000   -0.5000000000000000
   Ni   Fe
     4    12
Direct
  0.2490176394545927  0.6899612068492473  0.8135562433608357
  0.0020218797010898  0.2495017095590057  0.7497770763298561
  0.2495256741003473  0.9384237266100968  0.5614474829839864
  0.0009481251142915  0.4957335076713534  0.4993859047317173
  0.0031647345197428  0.7479302472940361  0.2502803092482608
  0.7453053094483977  0.5663022362439705  0.9373139892656326
  0.5051433854160976  0.1274683934143042  0.8753486806034942
  0.7445585676111079  0.8059945725472346  0.6861164780375475
  0.5048741926907780  0.3791608668574682  0.6239855376669752
  0.5033632078848527  0.6195932978166709  0.3742137024651626
  0.2531566634914455  0.1916439440304956  0.3136301094347687
  0.4992922347103246  0.8830983458082216  0.1232016514843153
  0.2455236737553506  0.4386784422749415  0.0626279198016277
  0.0002470021741772  0.9994300041186364  0.0023914083338852
  0.7434617195416138  0.0635182627017983  0.4372569085647413
  0.7503959903857904  0.3035612362025262  0.1894665976872076
 
  0.00000000E+00  0.00000000E+00  0.00000000E+00
  0.00000000E+00  0.00000000E+00  0.00000000E+00
  0.00000000E+00  0.00000000E+00  0.00000000E+00
  0.00000000E+00  0.00000000E+00  0.00000000E+00
  0.00000000E+00  0.00000000E+00  0.00000000E+00
  0.00000000E+00  0.00000000E+00  0.00000000E+00
  0.00000000E+00  0.00000000E+00  0.00000000E+00
  0.00000000E+00  0.00000000E+00  0.00000000E+00
  0.00000000E+00  0.00000000E+00  0.00000000E+00
  0.00000000E+00  0.00000000E+00  0.00000000E+00
  0.00000000E+00  0.00000000E+00  0.00000000E+00
  0.00000000E+00  0.00000000E+00  0.00000000E+00
  0.00000000E+00  0.00000000E+00  0.00000000E+00
  0.00000000E+00  0.00000000E+00  0.00000000E+00
  0.00000000E+00  0.00000000E+00  0.00000000E+00
  0.00000000E+00  0.00000000E+00  0.00000000E+00
