POSCAR                                  
   3.57500000000000     
     0.5000000000000000    0.5000000000000000   -1.0000000000000000
     0.0000000000000000   -1.5000000000000002   -0.5000000000000000
    -2.0000000000000000    0.5000000000000000   -0.5000000000000000
   Ni   Fe
     4    12
Direct
  0.2490176394545930  0.6899612068492503  0.8135562433608347
  0.0020218797010907  0.2495017095590091  0.7497770763298559
  0.2495256741003483  0.9384237266100950  0.5614474829839863
  0.0009481251142941  0.4957335076713529  0.4993859047317149
  0.0031647345197435  0.7479302472940360  0.2502803092482641
  0.7453053094483947  0.5663022362439694  0.9373139892656299
  0.5051433854160984  0.1274683934143015  0.8753486806034912
  0.7445585676111056  0.8059945725472313  0.6861164780375467
  0.5048741926907815  0.3791608668574715  0.6239855376669718
  0.5033632078848559  0.6195932978166686  0.3742137024651634
  0.2531566634914474  0.1916439440304921  0.3136301094347687
  0.4992922347103260  0.8830983458082214  0.1232016514843119
  0.2455236737553482  0.4386784422749446  0.0626279198016273
  0.0002470021741765 -0.0005699958813636  0.0023914083338851
  0.7434617195416123  0.0635182627017959  0.4372569085647393
  0.7503959903857904  0.3035612362025237  0.1894665976872086
 
  0.00000000E+00  0.00000000E+00  0.00000000E+00
  0.00000000E+00  0.00000000E+00  0.00000000E+00
  0.00000000E+00  0.00000000E+00  0.00000000E+00
  0.00000000E+00  0.00000000E+00  0.00000000E+00
  0.00000000E+00  0.00000000E+00  0.00000000E+00
  0.00000000E+00  0.00000000E+00  0.00000000E+00
  0.00000000E+00  0.00000000E+00  0.00000000E+00
  0.00000000E+00  0.00000000E+00  0.00000000E+00
  0.00000000E+00  0.00000000E+00  0.00000000E+00
  0.00000000E+00  0.00000000E+00  0.00000000E+00
  0.00000000E+00  0.00000000E+00  0.00000000E+00
  0.00000000E+00  0.00000000E+00  0.00000000E+00
  0.00000000E+00  0.00000000E+00  0.00000000E+00
  0.00000000E+00  0.00000000E+00  0.00000000E+00
  0.00000000E+00  0.00000000E+00  0.00000000E+00
  0.00000000E+00  0.00000000E+00  0.00000000E+00
