POSCAR                                  
   3.54500000000000     
     0.5000000000000000   -2.0000000000000000   -0.5000000000000000
    -3.0000000000000000   -1.5000000000000000   -0.5000000000000000
     0.0000000000000000    0.0000000000000000   -4.0000000000000000
   Ni   Fe
    81    27
Direct
  0.7778415815357820  0.9643112363601464  0.1574903649786215
  0.5574568066951496  0.9281438572946494  0.0634672707586199
  0.8873679049801685  0.8160663080561904  0.0365014711017392
  0.7777099344085479  0.9627306592370093  0.4082366051065139
  0.5542922094424294  0.9257806751333084  0.3148621770206952
  0.8892303174176602  0.8151481479005696  0.2865054944015388
  0.6656248783299866  0.7784346974030217  0.1947506880790171
  0.4458869620025889  0.7418431058711041  0.0995469589264707
  0.2226492338493634  0.7030718021283282  0.0083174891457506
  0.7771088067726425  0.9611181673630090  0.6579090596471379
  0.3304921781081517  0.8890013550292164  0.4732171573083940
  0.1083360698069243  0.8542187144753144  0.3788677606715717
  0.6665177816761833  0.7778965182929402  0.4448443625152459
  0.2251742146810701  0.7053501919942887  0.2580960017834328
  0.0006570840613045  0.6657407095157521  0.1663815771292650
  0.1107196325750515  0.5179249232491262  0.0456660552749735
  0.8903018993433834  0.4802525117764982  0.2035154927792068
  0.7801474145499494  0.9636663212386244  0.9061527578156711
  0.5563987270233789  0.9257664776220288  0.8146714049226534
  0.1104757021843058  0.8511147098361483  0.6300998453596414
  0.8893904463203405  0.8158668441115338  0.7878482047831978
  0.6644684029049653  0.7765045987412973  0.6956647687406193
  0.7808769182607157  0.6284796785459061  0.5732185210855629
  0.5544985770948104  0.5942255460350372  0.4807170250316271
  0.3340345746493122  0.5551269978856145  0.3896422052125256
  0.1142787436380829  0.5172182441699128  0.2960774551283992
  0.6687399723764181  0.4424980851469782  0.3598630682143973
  0.2252793401770846  0.3703426736469461  0.1751547991865099
  0.0039736349868230  0.3317789488618947  0.0820745424726219
  0.7788192319035256  0.2960064356175675  0.2408013516180434
  0.5568327797573930  0.2607318371123738  0.1486231451387259
  0.3388191839690228  0.2213402723106872  0.0546256316401206
  0.8871866226865101  0.1490676735553067  0.1207263912449868
  0.6675658570291573  0.1107600962086867  0.0260019123718892
  0.3318921134262159  0.8878359773852108  0.9713652184589375
  0.6654508622696731  0.7791780855976166  0.9433824081046499
  0.4420492268287640  0.7413447879363482  0.8520750616449725
  0.2244626766910973  0.7053817682271453  0.7584631704806726
 -0.0002087840488647  0.6661742590076957  0.6679843204171346
  0.7784563507066542  0.6301825360597532  0.8251023666096046
  0.5561242169403651  0.5919363593123980  0.7332722871677407
  0.3330077449591837  0.5553488430896752  0.6393309764350229
  0.8884446526580944  0.4822774463736173  0.7039619972014612
  0.6649643902479077  0.4444168601420171  0.6119489454972643
  0.4458505288251534  0.4073234564784642  0.5174708399823964
  0.2195774045840136  0.3696705219450850  0.4276125054617158
  0.0006886287822494  0.3322902419285838  0.3336758027217090
  0.7801016980309724  0.2956539006659115  0.4906274130831859
  0.5564605915866710  0.2580748490477567  0.3979246822517549
  0.3316655175115729  0.2214619091715260  0.3047601861810338
  0.8899448286913932  0.1466239629108012  0.3707512588154621
  0.6660242345131200  0.1114709325113615  0.2782100043033257
  0.4426146495980384  0.0746725046098289  0.1849743494475573
  0.2228846839399729  0.0358400910569829  0.0919325155536729
 -0.0017029087448500  0.0020713635091131  0.9996793497618852
  0.0001617070234738  0.6659663245964785  0.9158218919727507
  0.5562035156948122  0.5916366928148816  0.9820068124847778
  0.3321134810400858  0.5557866077059180  0.8880791394706056
  0.1118137079595935  0.5178491033206797  0.7970974293618989
  0.8862660953006819  0.4817877381824037  0.9536855212904283
  0.6643685855749941  0.4438674348688257  0.8631328377689768
  0.4440047662401080  0.4069592926338900  0.7701191459675076
  0.2241257617408567  0.3685581946568726  0.6756424525246418
  0.7758016689557607  0.2971845001624634  0.7429379675975506
  0.5550654534381013  0.2609999281375449  0.6476833262704065
  0.1104771026405004  0.1849927965086886  0.4628926789500498
  0.8850485880683343  0.1486493334006199  0.6217620898296472
  0.6666605041336990  0.1108315267658787  0.5296733274116409
  0.4453031041377145  0.0756938145797441  0.4343639524184291
  0.0027615246459088  0.0007444081758882  0.2489639694233221
  0.2206678229570700  0.3706375272090811  0.9257822189178889
  0.7777457434614986  0.2951938766759871  0.9902659027205715
  0.3308737486425370  0.2227873037624938  0.8068298940921490
  0.1097132804163706  0.1843675776996627  0.7125964479886194
  0.8913627243750313  0.1484872510032823  0.8691511821686133
  0.6657182167201535  0.1113647502369420  0.7778234211547294
  0.4451867536974450  0.0753462302392648  0.6866834159745429
  0.2217945496268352  0.0378571397452696  0.5926015004091975
  0.4431711370542311  0.0737383647571117  0.9348499682227868
  0.2250338422812093  0.0363564462365708  0.8429317124142469
  0.0016521718797518  0.0001282586236575  0.7499857521993873
  0.3381626628501297  0.8895866988903215  0.2183798488954579
  0.1053121518643738  0.8510701685724021  0.1271827312869579
  0.7816956503084774  0.6335225310002809  0.0719403705249313
  0.5517304329161963  0.9317614124008992  0.5637230458158363
  0.8823879889536783  0.8125861752440763  0.5400104063838324
  0.4405801336765477  0.7431014707994953  0.3536256600447372
  0.7796159515818298  0.6291214077527386  0.3208972199655649
  0.5546630878638453  0.5932329080479151  0.2313673572362948
  0.3297668940667458  0.5594662599135596  0.1379172222582827
  0.6752002808106659  0.4414234045440752  0.1106731262381986
  0.4422866563749202  0.4077043879321792  0.0182554050457457
  0.3335958587463365  0.8911174946323517  0.7226274097755901
  0.4494636058027714  0.7374109218557218  0.6021194056685459
  0.2161995964947441  0.7048013111845722  0.5123221406711916
  0.0039992249592912  0.6666784295888529  0.4128502535404017
  0.8870693825210201  0.4797359010103310  0.4542237269270040
  0.4424463103655037  0.4039637964579308  0.2708069942367913
  0.1069725031936869  0.8529643288830961  0.8816162841637946
  0.1138242880517450  0.5154714409453706  0.5489025410518441
  0.1112364380389048  0.1856244311176909  0.2098166398564531
 -0.0062095569352526  0.3310822819573042  0.5877913686793542
  0.3377357753745194  0.2208907952446401  0.5554665815175219
  0.2256892259733847  0.0369778711947226  0.3438048761158447
 -0.0023129257633657  0.3344395088259514  0.8304577501099268
  0.5567878584650875  0.2567135786134409  0.8968801277875932
 -0.0030116878401671  0.0008479582712453  0.5034364903367100
  0.1141097203820329  0.1841710237248312  0.9648963806836930
 
  0.00000000E+00  0.00000000E+00  0.00000000E+00
  0.00000000E+00  0.00000000E+00  0.00000000E+00
  0.00000000E+00  0.00000000E+00  0.00000000E+00
  0.00000000E+00  0.00000000E+00  0.00000000E+00
  0.00000000E+00  0.00000000E+00  0.00000000E+00
  0.00000000E+00  0.00000000E+00  0.00000000E+00
  0.00000000E+00  0.00000000E+00  0.00000000E+00
  0.00000000E+00  0.00000000E+00  0.00000000E+00
  0.00000000E+00  0.00000000E+00  0.00000000E+00
  0.00000000E+00  0.00000000E+00  0.00000000E+00
  0.00000000E+00  0.00000000E+00  0.00000000E+00
  0.00000000E+00  0.00000000E+00  0.00000000E+00
  0.00000000E+00  0.00000000E+00  0.00000000E+00
  0.00000000E+00  0.00000000E+00  0.00000000E+00
  0.00000000E+00  0.00000000E+00  0.00000000E+00
  0.00000000E+00  0.00000000E+00  0.00000000E+00
  0.00000000E+00  0.00000000E+00  0.00000000E+00
  0.00000000E+00  0.00000000E+00  0.00000000E+00
  0.00000000E+00  0.00000000E+00  0.00000000E+00
  0.00000000E+00  0.00000000E+00  0.00000000E+00
  0.00000000E+00  0.00000000E+00  0.00000000E+00
  0.00000000E+00  0.00000000E+00  0.00000000E+00
  0.00000000E+00  0.00000000E+00  0.00000000E+00
  0.00000000E+00  0.00000000E+00  0.00000000E+00
  0.00000000E+00  0.00000000E+00  0.00000000E+00
  0.00000000E+00  0.00000000E+00  0.00000000E+00
  0.00000000E+00  0.00000000E+00  0.00000000E+00
  0.00000000E+00  0.00000000E+00  0.00000000E+00
  0.00000000E+00  0.00000000E+00  0.00000000E+00
  0.00000000E+00  0.00000000E+00  0.00000000E+00
  0.00000000E+00  0.00000000E+00  0.00000000E+00
  0.00000000E+00  0.00000000E+00  0.00000000E+00
  0.00000000E+00  0.00000000E+00  0.00000000E+00
  0.00000000E+00  0.00000000E+00  0.00000000E+00
  0.00000000E+00  0.00000000E+00  0.00000000E+00
  0.00000000E+00  0.00000000E+00  0.00000000E+00
  0.00000000E+00  0.00000000E+00  0.00000000E+00
  0.00000000E+00  0.00000000E+00  0.00000000E+00
  0.00000000E+00  0.00000000E+00  0.00000000E+00
  0.00000000E+00  0.00000000E+00  0.00000000E+00
  0.00000000E+00  0.00000000E+00  0.00000000E+00
  0.00000000E+00  0.00000000E+00  0.00000000E+00
  0.00000000E+00  0.00000000E+00  0.00000000E+00
  0.00000000E+00  0.00000000E+00  0.00000000E+00
  0.00000000E+00  0.00000000E+00  0.00000000E+00
  0.00000000E+00  0.00000000E+00  0.00000000E+00
  0.00000000E+00  0.00000000E+00  0.00000000E+00
  0.00000000E+00  0.00000000E+00  0.00000000E+00
  0.00000000E+00  0.00000000E+00  0.00000000E+00
  0.00000000E+00  0.00000000E+00  0.00000000E+00
  0.00000000E+00  0.00000000E+00  0.00000000E+00
  0.00000000E+00  0.00000000E+00  0.00000000E+00
  0.00000000E+00  0.00000000E+00  0.00000000E+00
  0.00000000E+00  0.00000000E+00  0.00000000E+00
  0.00000000E+00  0.00000000E+00  0.00000000E+00
  0.00000000E+00  0.00000000E+00  0.00000000E+00
  0.00000000E+00  0.00000000E+00  0.00000000E+00
  0.00000000E+00  0.00000000E+00  0.00000000E+00
  0.00000000E+00  0.00000000E+00  0.00000000E+00
  0.00000000E+00  0.00000000E+00  0.00000000E+00
  0.00000000E+00  0.00000000E+00  0.00000000E+00
  0.00000000E+00  0.00000000E+00  0.00000000E+00
  0.00000000E+00  0.00000000E+00  0.00000000E+00
  0.00000000E+00  0.00000000E+00  0.00000000E+00
  0.00000000E+00  0.00000000E+00  0.00000000E+00
  0.00000000E+00  0.00000000E+00  0.00000000E+00
  0.00000000E+00  0.00000000E+00  0.00000000E+00
  0.00000000E+00  0.00000000E+00  0.00000000E+00
  0.00000000E+00  0.00000000E+00  0.00000000E+00
  0.00000000E+00  0.00000000E+00  0.00000000E+00
  0.00000000E+00  0.00000000E+00  0.00000000E+00
  0.00000000E+00  0.00000000E+00  0.00000000E+00
  0.00000000E+00  0.00000000E+00  0.00000000E+00
  0.00000000E+00  0.00000000E+00  0.00000000E+00
  0.00000000E+00  0.00000000E+00  0.00000000E+00
  0.00000000E+00  0.00000000E+00  0.00000000E+00
  0.00000000E+00  0.00000000E+00  0.00000000E+00
  0.00000000E+00  0.00000000E+00  0.00000000E+00
  0.00000000E+00  0.00000000E+00  0.00000000E+00
  0.00000000E+00  0.00000000E+00  0.00000000E+00
  0.00000000E+00  0.00000000E+00  0.00000000E+00
  0.00000000E+00  0.00000000E+00  0.00000000E+00
  0.00000000E+00  0.00000000E+00  0.00000000E+00
  0.00000000E+00  0.00000000E+00  0.00000000E+00
  0.00000000E+00  0.00000000E+00  0.00000000E+00
  0.00000000E+00  0.00000000E+00  0.00000000E+00
  0.00000000E+00  0.00000000E+00  0.00000000E+00
  0.00000000E+00  0.00000000E+00  0.00000000E+00
  0.00000000E+00  0.00000000E+00  0.00000000E+00
  0.00000000E+00  0.00000000E+00  0.00000000E+00
  0.00000000E+00  0.00000000E+00  0.00000000E+00
  0.00000000E+00  0.00000000E+00  0.00000000E+00
  0.00000000E+00  0.00000000E+00  0.00000000E+00
  0.00000000E+00  0.00000000E+00  0.00000000E+00
  0.00000000E+00  0.00000000E+00  0.00000000E+00
  0.00000000E+00  0.00000000E+00  0.00000000E+00
  0.00000000E+00  0.00000000E+00  0.00000000E+00
  0.00000000E+00  0.00000000E+00  0.00000000E+00
  0.00000000E+00  0.00000000E+00  0.00000000E+00
  0.00000000E+00  0.00000000E+00  0.00000000E+00
  0.00000000E+00  0.00000000E+00  0.00000000E+00
  0.00000000E+00  0.00000000E+00  0.00000000E+00
  0.00000000E+00  0.00000000E+00  0.00000000E+00
  0.00000000E+00  0.00000000E+00  0.00000000E+00
  0.00000000E+00  0.00000000E+00  0.00000000E+00
  0.00000000E+00  0.00000000E+00  0.00000000E+00
  0.00000000E+00  0.00000000E+00  0.00000000E+00
  0.00000000E+00  0.00000000E+00  0.00000000E+00
