POSCAR                                  
   3.57500000000000     
     1.5000000000000002   -2.0000000000000000   -0.5000000000000000
    -2.0000000000000000   -1.5000000000000002    0.5000000000000000
    -1.0000000000000000    1.0000000000000000   -4.0000000000000000
   Fe   Ni
    81    27
Direct
  0.1345289843870630  0.9786491436439517  0.2289773706113690
  0.3865805491941630  0.9376495174327615  0.1968397988261815
  0.1644844007380578  0.8407506731758619  0.0882363204504660
  0.6490441838481438  0.9021768230079285  0.1607176433249064
  0.4305480065324852  0.7880875666677992  0.0466725031305741
  0.9064577064418405  0.8632845622390806  0.1252960324250414
  0.6803736040555496  0.7563582776610946  0.0118046916682435
  0.2643436388454347  0.9669150093731002  0.4634535538896463
  0.5228907694333207  0.9236623373692437  0.4262106470608995
  0.2991783291931139  0.8151449971761430  0.3128010645356961
  0.0765926416078514  0.7036521279319248  0.1988590585213507
  0.7777673485448366  0.8918479765565304  0.3892875925344115
  0.5524833280380107  0.7833654004816658  0.2765447201791491
  0.3349419956899684  0.6686514133035389  0.1693490803684430
  0.1094511775994982  0.5579368201883540  0.0568829563912420
  0.8123472960641844  0.7407872965460619  0.2377020627949068
  0.5911911776665846  0.6313731529403772  0.1295234805748735
  0.3758456313773437  0.5250867074948915  0.0196028680446363
  0.8485607192035632  0.5968766800500028  0.0954621370325861
  0.1376235603508056  0.9830414284198556  0.7362740627748268
  0.3926402058020687  0.9487718125175797  0.6969124342737719
  0.6435972483214140  0.9025509942906023  0.6523434892480150
  0.4308188616406036  0.7987694128524055  0.5430132627553936
  0.2065625864027813  0.6757646400341276  0.4347666415720368
  0.6803692750705886  0.7578936965685934  0.5097496464868717
  0.4575766999132252  0.6465703218165402  0.3986287133115904
  0.2416156396289788  0.5443857187185183  0.2921581246309351
  0.9453487802225726  0.7245011973298305  0.4700954067897293
  0.4991708633401720  0.4988224677332143  0.2490395228059853
  0.0572584194026363  0.2721904016843612  0.0249943289833211
  0.9861617552610134  0.5724362644704373  0.3268068864121612
  0.7572291367449279  0.4616518581292048  0.2110236193068818
  0.5383766002799684  0.3590148611611859  0.1040409847175269
  0.0407551942893068  0.8603480314614641  0.8477769803558823
  0.5169759159122336  0.9267648782710931  0.9252299432902420
  0.2925272672281296  0.8167131442797815  0.8097190435494938
  0.0758263346368094  0.6976837813232758  0.7049550303508518
  0.3317027974174313  0.6616020266585340  0.6661226218496766
  0.1172427205484683  0.5559157810756634  0.5572036229247297
  0.8190795166828299  0.7335419253338097  0.7398493519836222
  0.5936767662347269  0.6324175242365605  0.6257751580574522
  0.3713859471904637  0.5230216948259752  0.5166672204758671
  0.1527170915636981  0.4096594869717667  0.4088326500235275
  0.8493389803152261  0.5922517364092426  0.5939750529367959
  0.6272275217542228  0.4828611390690405  0.4863664393833685
  0.3995832415695712  0.3718762969309186  0.3684288711714647
  0.1865377730426826  0.2536441430106966  0.2613170843947998
  0.4477726796246830  0.2255988328407477  0.2240653301763082
  0.2194413578102558  0.1093336574970407  0.1168978325092513
  0.0087208767110347  0.0023060163150812  0.0001158105444960
  0.9273662726211587  0.3017766446297935  0.2934683907553399
  0.7036885143001541  0.1854365813017065  0.1913472967666953
  0.4661059647656040  0.6408776906923692  0.9006266638854760
  0.2476616442172462  0.5397373379986069  0.7808383469332177
  0.0205957854286088  0.4247439792459069  0.6761229331006652
  0.7161799346925136  0.6040800309884875  0.8594766904896834
  0.4993891756948828  0.4978160853476777  0.7538743036468628
  0.2700964335921484  0.3893572831031827  0.6389879068080492
  0.0569238407866235  0.2862708464610884  0.5322107028834612
  0.7603852310482883  0.4687400064178378  0.7123465280478006
  0.3195078176795080  0.2358843033719752  0.4899896499262989
  0.7959668431681578  0.3225934611891139  0.5639813526539350
  0.5713512430316984  0.1998771172489548  0.4577908824893792
  0.3517072904370540  0.0931369044916417  0.3422155308134246
  0.6035595346651914  0.0537785675250589  0.3018763885596993
  0.8616323725187564  0.0138524368808398  0.2653981868761558
  0.6311125478508356  0.4843060480248778  0.9797153504241380
  0.4132405370974979  0.3702768503033545  0.8678938778440489
  0.1898392050336337  0.2591883459056720  0.7585481832897863
  0.8883889923254544  0.4438722152555296  0.9443445266892510
  0.6624026264447402  0.3351360446965093  0.8346738718431892
  0.4409488546705357  0.2209501467312331  0.7252680234084425
  0.2269432341524507  0.1174133004823526  0.6097774982760200
  0.9998721770444727  0.9952322509764245  0.4988545207859400
  0.9280611694436099  0.2991742136390982  0.7985216486744762
  0.4740065089354723  0.0678030309074479  0.5691854689228169
  0.7338905364153437  0.0313427561128533  0.5349102835809280
  0.0877492591397025  0.1296633802388728  0.8766255893135215
  0.5684736415251403  0.2028899087714618  0.9490524285830982
  0.3546441958408569  0.0938936073708067  0.8379975154538288
  0.6009433522115072  0.0566798221315775  0.8049807741904625
  0.0370719077890797  0.8503283323285041  0.3519788013862631
  0.1673673260982589  0.8344461591626664  0.5824903071537243
  0.9069837394740758  0.8682679341604275  0.6193949246977071
  0.0188704133836636  0.4292329422025727  0.1761246540439848
  0.7209399612659069  0.6145178375804966  0.3609612105100169
  0.2779735180964621  0.3890526348392584  0.1384457150707354
  0.7931050370866889  0.3167712994389626  0.0647109363023921
  0.2600222988427764  0.9605325323957205  0.9623340617774085
  0.7771776071304843  0.8865700875868087  0.8896191891510739
  0.5550111844484633  0.7766377847531355  0.7773737296804204
  0.8915418389177582  0.4448906012617645  0.4449977924859306
  0.6633372092055139  0.3329025895981848  0.3342187299664388
  0.4819602688143934  0.0748528485844847  0.0752716948803315
  0.9656654341897889  0.1470393474772811  0.1499924173008571
  0.7397721566674871  0.0340611081560235  0.0385605163510696
  0.2063314368306015  0.6868609375424576  0.9351726189169483
  0.9438347112667400  0.7206327515497890  0.9742202904138312
  0.9796251514214870  0.5726271530328992  0.8228905719778328
  0.5346661355486801  0.3536653996037001  0.6022257032102419
  0.0936374315167845  0.1316063088006344  0.3804263980649401
  0.8337798438084147  0.1638928212554532  0.4179022462483063
  0.1497884778903122  0.4066205669459633  0.9074795831052095
  0.7037056340720667  0.1864220324033327  0.6849439529190907
  0.9657407781501564  0.1488781258245704  0.6454760802101545
  0.3152824356378201  0.2411935240229208  0.9895385960444635
  0.8325409752660939  0.1692463420041526  0.9167052561179666
  0.8691592470266142  0.0183071435680045  0.7682739556850896
 
  0.00000000E+00  0.00000000E+00  0.00000000E+00
  0.00000000E+00  0.00000000E+00  0.00000000E+00
  0.00000000E+00  0.00000000E+00  0.00000000E+00
  0.00000000E+00  0.00000000E+00  0.00000000E+00
  0.00000000E+00  0.00000000E+00  0.00000000E+00
  0.00000000E+00  0.00000000E+00  0.00000000E+00
  0.00000000E+00  0.00000000E+00  0.00000000E+00
  0.00000000E+00  0.00000000E+00  0.00000000E+00
  0.00000000E+00  0.00000000E+00  0.00000000E+00
  0.00000000E+00  0.00000000E+00  0.00000000E+00
  0.00000000E+00  0.00000000E+00  0.00000000E+00
  0.00000000E+00  0.00000000E+00  0.00000000E+00
  0.00000000E+00  0.00000000E+00  0.00000000E+00
  0.00000000E+00  0.00000000E+00  0.00000000E+00
  0.00000000E+00  0.00000000E+00  0.00000000E+00
  0.00000000E+00  0.00000000E+00  0.00000000E+00
  0.00000000E+00  0.00000000E+00  0.00000000E+00
  0.00000000E+00  0.00000000E+00  0.00000000E+00
  0.00000000E+00  0.00000000E+00  0.00000000E+00
  0.00000000E+00  0.00000000E+00  0.00000000E+00
  0.00000000E+00  0.00000000E+00  0.00000000E+00
  0.00000000E+00  0.00000000E+00  0.00000000E+00
  0.00000000E+00  0.00000000E+00  0.00000000E+00
  0.00000000E+00  0.00000000E+00  0.00000000E+00
  0.00000000E+00  0.00000000E+00  0.00000000E+00
  0.00000000E+00  0.00000000E+00  0.00000000E+00
  0.00000000E+00  0.00000000E+00  0.00000000E+00
  0.00000000E+00  0.00000000E+00  0.00000000E+00
  0.00000000E+00  0.00000000E+00  0.00000000E+00
  0.00000000E+00  0.00000000E+00  0.00000000E+00
  0.00000000E+00  0.00000000E+00  0.00000000E+00
  0.00000000E+00  0.00000000E+00  0.00000000E+00
  0.00000000E+00  0.00000000E+00  0.00000000E+00
  0.00000000E+00  0.00000000E+00  0.00000000E+00
  0.00000000E+00  0.00000000E+00  0.00000000E+00
  0.00000000E+00  0.00000000E+00  0.00000000E+00
  0.00000000E+00  0.00000000E+00  0.00000000E+00
  0.00000000E+00  0.00000000E+00  0.00000000E+00
  0.00000000E+00  0.00000000E+00  0.00000000E+00
  0.00000000E+00  0.00000000E+00  0.00000000E+00
  0.00000000E+00  0.00000000E+00  0.00000000E+00
  0.00000000E+00  0.00000000E+00  0.00000000E+00
  0.00000000E+00  0.00000000E+00  0.00000000E+00
  0.00000000E+00  0.00000000E+00  0.00000000E+00
  0.00000000E+00  0.00000000E+00  0.00000000E+00
  0.00000000E+00  0.00000000E+00  0.00000000E+00
  0.00000000E+00  0.00000000E+00  0.00000000E+00
  0.00000000E+00  0.00000000E+00  0.00000000E+00
  0.00000000E+00  0.00000000E+00  0.00000000E+00
  0.00000000E+00  0.00000000E+00  0.00000000E+00
  0.00000000E+00  0.00000000E+00  0.00000000E+00
  0.00000000E+00  0.00000000E+00  0.00000000E+00
  0.00000000E+00  0.00000000E+00  0.00000000E+00
  0.00000000E+00  0.00000000E+00  0.00000000E+00
  0.00000000E+00  0.00000000E+00  0.00000000E+00
  0.00000000E+00  0.00000000E+00  0.00000000E+00
  0.00000000E+00  0.00000000E+00  0.00000000E+00
  0.00000000E+00  0.00000000E+00  0.00000000E+00
  0.00000000E+00  0.00000000E+00  0.00000000E+00
  0.00000000E+00  0.00000000E+00  0.00000000E+00
  0.00000000E+00  0.00000000E+00  0.00000000E+00
  0.00000000E+00  0.00000000E+00  0.00000000E+00
  0.00000000E+00  0.00000000E+00  0.00000000E+00
  0.00000000E+00  0.00000000E+00  0.00000000E+00
  0.00000000E+00  0.00000000E+00  0.00000000E+00
  0.00000000E+00  0.00000000E+00  0.00000000E+00
  0.00000000E+00  0.00000000E+00  0.00000000E+00
  0.00000000E+00  0.00000000E+00  0.00000000E+00
  0.00000000E+00  0.00000000E+00  0.00000000E+00
  0.00000000E+00  0.00000000E+00  0.00000000E+00
  0.00000000E+00  0.00000000E+00  0.00000000E+00
  0.00000000E+00  0.00000000E+00  0.00000000E+00
  0.00000000E+00  0.00000000E+00  0.00000000E+00
  0.00000000E+00  0.00000000E+00  0.00000000E+00
  0.00000000E+00  0.00000000E+00  0.00000000E+00
  0.00000000E+00  0.00000000E+00  0.00000000E+00
  0.00000000E+00  0.00000000E+00  0.00000000E+00
  0.00000000E+00  0.00000000E+00  0.00000000E+00
  0.00000000E+00  0.00000000E+00  0.00000000E+00
  0.00000000E+00  0.00000000E+00  0.00000000E+00
  0.00000000E+00  0.00000000E+00  0.00000000E+00
  0.00000000E+00  0.00000000E+00  0.00000000E+00
  0.00000000E+00  0.00000000E+00  0.00000000E+00
  0.00000000E+00  0.00000000E+00  0.00000000E+00
  0.00000000E+00  0.00000000E+00  0.00000000E+00
  0.00000000E+00  0.00000000E+00  0.00000000E+00
  0.00000000E+00  0.00000000E+00  0.00000000E+00
  0.00000000E+00  0.00000000E+00  0.00000000E+00
  0.00000000E+00  0.00000000E+00  0.00000000E+00
  0.00000000E+00  0.00000000E+00  0.00000000E+00
  0.00000000E+00  0.00000000E+00  0.00000000E+00
  0.00000000E+00  0.00000000E+00  0.00000000E+00
  0.00000000E+00  0.00000000E+00  0.00000000E+00
  0.00000000E+00  0.00000000E+00  0.00000000E+00
  0.00000000E+00  0.00000000E+00  0.00000000E+00
  0.00000000E+00  0.00000000E+00  0.00000000E+00
  0.00000000E+00  0.00000000E+00  0.00000000E+00
  0.00000000E+00  0.00000000E+00  0.00000000E+00
  0.00000000E+00  0.00000000E+00  0.00000000E+00
  0.00000000E+00  0.00000000E+00  0.00000000E+00
  0.00000000E+00  0.00000000E+00  0.00000000E+00
  0.00000000E+00  0.00000000E+00  0.00000000E+00
  0.00000000E+00  0.00000000E+00  0.00000000E+00
  0.00000000E+00  0.00000000E+00  0.00000000E+00
  0.00000000E+00  0.00000000E+00  0.00000000E+00
  0.00000000E+00  0.00000000E+00  0.00000000E+00
  0.00000000E+00  0.00000000E+00  0.00000000E+00
  0.00000000E+00  0.00000000E+00  0.00000000E+00
