POSCAR                                  
   3.57100000000000     
     2.0000000000000000    0.0000000000000000    0.0000000000000000
     0.0000000000000000    2.0000000000000000    0.0000000000000000
     0.0000000000000000    0.0000000000000000    2.0000000000000000
   Fe   Ni
    16    16
Direct
  0.9999978581720796  0.9982119608826352  0.5000016130956482
  0.0034732607915373  0.2524886521979042  0.7500000477470792
  0.0000010142696780  0.9982139417677445  0.9999997211065477
  0.9965245220114838  0.2524879849842989  0.2500010124957299
  0.9977555393875051  0.7437668384993543  0.7500028369515803
  0.2539696519778403  0.9991877711253778  0.2499965179948092
  0.2540635031742582  0.2553875306623326  0.5005949173554072
  0.2573744126103321  0.5063944806992282  0.7500041239105499
  0.5000077037825150  0.9934618505760682  0.5000042592974907
  0.7460333622680508  0.9991846056273062  0.7500047865774278
  0.0022445010852437  0.7437693003791566  0.2499968732279569
  0.2540580157984706  0.2553871870102356  0.9994064257388899
  0.4999963528059155  0.9934632169861857  0.9999946474243870
  0.7459372697733286  0.2553885637804783  0.4994067030186997
  0.7459414893724059  0.2553866314318967  0.0005926417457047
  0.7426255670979032  0.5063919674926893  0.2499963280899067
  0.2541370423083009  0.9947262086789053  0.7500006422270786
  0.9999984321838156  0.5012128711481694  0.5000000391327646
  0.4987891729162044  0.2520142564011962  0.7500031824150142
  0.9999998261629202  0.5012146760150387  0.9999993286647495
  0.2515509985555440  0.4991038334952407  0.2499991411320934
  0.2509950646729777  0.7487876167125478  0.5013359383305556
  0.5012111264963224  0.2520129467933714  0.2499967771934806
  0.5000003022863098  0.5020431045770337  0.4999998314762522
  0.5036636903678442  0.7490382495573371  0.7500031903334374
  0.7458613482395222  0.9947260159240443  0.2499976495130483
  0.7484485140831723  0.4991065861542410  0.7500021073417429
  0.2509944920380889  0.7487865137366470  0.9986633437221002
  0.5000000637134434  0.5020417314803396  0.9999998366038625
  0.4963354037973886  0.7490400737761860  0.2499958055856126
  0.7490052676568979  0.7487857530274908  0.4986628632641228
  0.7490052301427426  0.7487870784193333  0.0013368672862697
 
  0.00000000E+00  0.00000000E+00  0.00000000E+00
  0.00000000E+00  0.00000000E+00  0.00000000E+00
  0.00000000E+00  0.00000000E+00  0.00000000E+00
  0.00000000E+00  0.00000000E+00  0.00000000E+00
  0.00000000E+00  0.00000000E+00  0.00000000E+00
  0.00000000E+00  0.00000000E+00  0.00000000E+00
  0.00000000E+00  0.00000000E+00  0.00000000E+00
  0.00000000E+00  0.00000000E+00  0.00000000E+00
  0.00000000E+00  0.00000000E+00  0.00000000E+00
  0.00000000E+00  0.00000000E+00  0.00000000E+00
  0.00000000E+00  0.00000000E+00  0.00000000E+00
  0.00000000E+00  0.00000000E+00  0.00000000E+00
  0.00000000E+00  0.00000000E+00  0.00000000E+00
  0.00000000E+00  0.00000000E+00  0.00000000E+00
  0.00000000E+00  0.00000000E+00  0.00000000E+00
  0.00000000E+00  0.00000000E+00  0.00000000E+00
  0.00000000E+00  0.00000000E+00  0.00000000E+00
  0.00000000E+00  0.00000000E+00  0.00000000E+00
  0.00000000E+00  0.00000000E+00  0.00000000E+00
  0.00000000E+00  0.00000000E+00  0.00000000E+00
  0.00000000E+00  0.00000000E+00  0.00000000E+00
  0.00000000E+00  0.00000000E+00  0.00000000E+00
  0.00000000E+00  0.00000000E+00  0.00000000E+00
  0.00000000E+00  0.00000000E+00  0.00000000E+00
  0.00000000E+00  0.00000000E+00  0.00000000E+00
  0.00000000E+00  0.00000000E+00  0.00000000E+00
  0.00000000E+00  0.00000000E+00  0.00000000E+00
  0.00000000E+00  0.00000000E+00  0.00000000E+00
  0.00000000E+00  0.00000000E+00  0.00000000E+00
  0.00000000E+00  0.00000000E+00  0.00000000E+00
  0.00000000E+00  0.00000000E+00  0.00000000E+00
  0.00000000E+00  0.00000000E+00  0.00000000E+00
