POSCAR                                  
   3.57100000000000     
     2.0000000000000000   -2.0000000000000000    0.0000000000000000
     0.0000000000000000    2.0000000000000000   -2.0000000000000000
     1.0000000000000000    1.0000000000000000    1.0000000000000000
   Ni   Fe
    24    24
Direct
  0.9990426545701145  0.0006422658174524  0.9937052037941403
  0.2484910668696318  0.9986282386086859 -0.0010318858651101
  0.4990245659117693  0.0019270205217591  0.9981123876830968
  0.9981393555674688  0.2506735887322680  0.9985823490258188
  0.2492152145935470  0.2488620999862298  0.9959829489769472
  0.3344684938805137  0.1651464906153965  0.3308491009389404
  0.7489347486435811  0.2527811563361918  0.0028167570495550
  0.4183753802711032  0.0839396347315426  0.6624322948919774
  0.8320320533868809  0.1658838286253024  0.3372046344997631
  0.6679703973870639  0.0847226309660297  0.6678446330935215
 -0.0009141317785825  0.4991080329578100  0.0023537753173756
  0.7481691428711833  0.4987108716068033  0.9989379632712603
  0.5831017087481919  0.4132039818638497  0.3324804509785511
  0.4196100098966790  0.3333714193040083  0.6625070919056455
  0.8311966648064625  0.4147586551522720  0.3379468051833551
  0.9185592181967145  0.3350160385988742  0.6678247751220256
  0.9976575934626155  0.7489693755272776  0.0007061352857744
  0.0819511040475480  0.6657041953462978  0.3346868242415809
  0.7534651791882674  0.7517284755579374  0.9975040512612807
  0.4173726797029782  0.5835243539068148  0.6697040656508102
  0.9155078244796848  0.5846194325945887  0.6669360821765662
  0.1668287372916580  0.8349076317666496  0.6639735920244422
  0.4171530400014943  0.8333879434710380  0.6716232224857502
  0.9198514537667530  0.8326367473208020  0.6668323445629040
  0.7491816000208547  0.0045383572865136  0.0026046085729884
  0.0847582806494880  0.1693267437363221  0.3223227951812430
  0.4931900821618734  0.2454395448172407  0.9976744097523295
  0.1713961221517037  0.0833926275120949  0.6666958750163742
  0.5877609400284750  0.1693125402041706  0.3302374766377348
  0.9169309101747872  0.0858153224205300  0.6623726970968811
  0.2459640567341206  0.4966934439369511  0.0046195044065544
  0.0743839105458391  0.4150961233113640  0.3345749996082749
  0.5029728167009845  0.4996209024970484  0.9952178103686246
  0.3391722805266457  0.4151445686451957  0.3330017420388739
  0.1708139261134381  0.3372416568600943  0.6671991828817704
  0.6726472175390713  0.3359807875073944  0.6689114014926095
  0.2449054486998545  0.7527000498331079  0.0037156140926030
  0.4984031255073529  0.7498825956476323  0.0008657719440372
  0.3320854535537090  0.6626209157545077  0.3411649467800034
  0.1647055711163564  0.5862714898934153  0.6734715417288796
  0.5857943590418633  0.6682610277790870  0.3324865555330195
  0.8308812153696846  0.6587747789959814  0.3316235856925481
  0.6676253596121215  0.5842620077108072  0.6661464862807185
  0.0823546380608485  0.9142708579642107  0.3249412176526486
  0.3339441545776858  0.9158429444148104  0.3373423904640810
  0.5823156840836524  0.9186518575054031  0.3400049027505011
  0.8341944188559725  0.9144941191211926  0.3313339395610713
  0.6684142724103881  0.8335106267290706  0.6709549409096716
 
  0.00000000E+00  0.00000000E+00  0.00000000E+00
  0.00000000E+00  0.00000000E+00  0.00000000E+00
  0.00000000E+00  0.00000000E+00  0.00000000E+00
  0.00000000E+00  0.00000000E+00  0.00000000E+00
  0.00000000E+00  0.00000000E+00  0.00000000E+00
  0.00000000E+00  0.00000000E+00  0.00000000E+00
  0.00000000E+00  0.00000000E+00  0.00000000E+00
  0.00000000E+00  0.00000000E+00  0.00000000E+00
  0.00000000E+00  0.00000000E+00  0.00000000E+00
  0.00000000E+00  0.00000000E+00  0.00000000E+00
  0.00000000E+00  0.00000000E+00  0.00000000E+00
  0.00000000E+00  0.00000000E+00  0.00000000E+00
  0.00000000E+00  0.00000000E+00  0.00000000E+00
  0.00000000E+00  0.00000000E+00  0.00000000E+00
  0.00000000E+00  0.00000000E+00  0.00000000E+00
  0.00000000E+00  0.00000000E+00  0.00000000E+00
  0.00000000E+00  0.00000000E+00  0.00000000E+00
  0.00000000E+00  0.00000000E+00  0.00000000E+00
  0.00000000E+00  0.00000000E+00  0.00000000E+00
  0.00000000E+00  0.00000000E+00  0.00000000E+00
  0.00000000E+00  0.00000000E+00  0.00000000E+00
  0.00000000E+00  0.00000000E+00  0.00000000E+00
  0.00000000E+00  0.00000000E+00  0.00000000E+00
  0.00000000E+00  0.00000000E+00  0.00000000E+00
  0.00000000E+00  0.00000000E+00  0.00000000E+00
  0.00000000E+00  0.00000000E+00  0.00000000E+00
  0.00000000E+00  0.00000000E+00  0.00000000E+00
  0.00000000E+00  0.00000000E+00  0.00000000E+00
  0.00000000E+00  0.00000000E+00  0.00000000E+00
  0.00000000E+00  0.00000000E+00  0.00000000E+00
  0.00000000E+00  0.00000000E+00  0.00000000E+00
  0.00000000E+00  0.00000000E+00  0.00000000E+00
  0.00000000E+00  0.00000000E+00  0.00000000E+00
  0.00000000E+00  0.00000000E+00  0.00000000E+00
  0.00000000E+00  0.00000000E+00  0.00000000E+00
  0.00000000E+00  0.00000000E+00  0.00000000E+00
  0.00000000E+00  0.00000000E+00  0.00000000E+00
  0.00000000E+00  0.00000000E+00  0.00000000E+00
  0.00000000E+00  0.00000000E+00  0.00000000E+00
  0.00000000E+00  0.00000000E+00  0.00000000E+00
  0.00000000E+00  0.00000000E+00  0.00000000E+00
  0.00000000E+00  0.00000000E+00  0.00000000E+00
  0.00000000E+00  0.00000000E+00  0.00000000E+00
  0.00000000E+00  0.00000000E+00  0.00000000E+00
  0.00000000E+00  0.00000000E+00  0.00000000E+00
  0.00000000E+00  0.00000000E+00  0.00000000E+00
  0.00000000E+00  0.00000000E+00  0.00000000E+00
  0.00000000E+00  0.00000000E+00  0.00000000E+00
