POSCAR                                  
   1.00000000000000     
    10.1003100000000003    0.0000000000000000    0.0000000000000000
    -5.0501550000000002    8.7471250499999993    0.0000000000000000
     0.0000000000000000    0.0000000000000000   21.2526609099999995
   Ni   Fe
    34    30
Selective dynamics
Direct
  0.9990430000000003  0.0006419999999991  0.0941058599999991   F   F   F
  0.0019538825406329  0.0004958202825520  0.3826343775022281   T   T   T
  0.2484910000000013  0.9986279999999965  0.0956375499999993   F   F   F
  0.2488223035726946  0.9989207232791131  0.3836389070079704   T   T   T
  0.4990250000000032  0.0019270000000020  0.0953884299999999   F   F   F
  0.5024623287578791  0.9982422045470898  0.3825586255033429   T   T   T
  0.9981390000000019  0.2506739999999965  0.0955252099999981   F   F   F
  0.0001091935957334  0.2498180608302363  0.3834925981654109   T   T   T
  0.2492149999999995  0.2488620000000026  0.0947688299999996   F   F   F
  0.2490414284641176  0.2506516484903258  0.3847036007583640   T   T   T
  0.3344680000000011  0.1651460000000000  0.1922246900000033   F   F   F
  0.7489350000000030  0.2527809999999988  0.0967577199999994   F   F   F
  0.7497638296844684  0.2512230181952972  0.3842604529551892   T   T   T
  0.4184879301738746  0.0840143300442762  0.2888613758544807   T   T   T
  0.8320319999999981  0.1658839999999984  0.1940744799999976   F   F   F
  0.6686315958631184  0.0837737818119990  0.2895819201498284   T   T   T
  0.9990859999999984  0.4991079999999997  0.0966229799999994   F   F   F
  0.9989969420413871  0.4988269691334608  0.3838585793913509   T   T   T
  0.7481689999999972  0.4987110000000001  0.0956288200000017   F   F   F
  0.7495360768760193  0.5001971864143329  0.3851313555928897   T   T   T
  0.5831019999999967  0.4132040000000003  0.1926993599999989   F   F   F
  0.4207752031009520  0.3329954829735584  0.2894085688254862   T   T   T
  0.8311970000000031  0.4147589999999965  0.1942904200000015   F   F   F
  0.9189074436634925  0.3340859240615330  0.2899411036540087   T   T   T
  0.9976580000000013  0.7489690000000024  0.0961433599999992   F   F   F
  0.9986445940121413  0.7475466783422817  0.3827209640605247   T   T   T
  0.0819509999999966  0.6657039999999981  0.1933416600000015   F   F   F
  0.7534649999999985  0.7517280000000000  0.0952114800000032   F   F   F
  0.7523870925100269  0.7501456863467908  0.3842137712776434   T   T   T
  0.4173717944754074  0.5820722795300100  0.2917000645805743   T   T   T
  0.9161522601625762  0.5849184220564041  0.2893774676759264   T   T   T
  0.1682806652237403  0.8344539297774602  0.2887454926390944   T   T   T
  0.4164418933130491  0.8301318087236922  0.2911950022451464   T   T   T
  0.9200931339453504  0.8349182931604631  0.2881798519453156   T   T   T
  0.7491819999999976  0.0045379999999966  0.0966960299999968   F   F   F
  0.7507601504533241  0.0019495366633251  0.3868747083835302   T   T   T
  0.0847580000000008  0.1693270000000027  0.1897433800000030   F   F   F
  0.4931899999999985  0.2454400000000021  0.0952609599999974   F   F   F
  0.4960361735866883  0.2405994898243478  0.3864268740992074   T   T   T
  0.1724377909044463  0.0848155280359251  0.2905052677881486   T   T   T
  0.5877610000000004  0.1693130000000025  0.1920465800000031   F   F   F
  0.9173295462978288  0.0853554913674728  0.2892350453498977   T   T   T
  0.2459640000000007  0.4966930000000005  0.0972824500000016   F   F   F
  0.2453893216559422  0.4994536687981039  0.3915724624344250   T   T   T
  0.0743840000000020  0.4150959999999984  0.1933090699999980   F   F   F
  0.5029729999999972  0.4996209999999977  0.0945461900000026   F   F   F
  0.5023035182606890  0.4980679960467711  0.3854678793460806   T   T   T
  0.3391719999999978  0.4151450000000025  0.1928512799999993   F   F   F
  0.1728164421639704  0.3398234228768686  0.2911622397557565   T   T   T
  0.6722121853831879  0.3362956823202055  0.2916686657036536   T   T   T
  0.2449050000000028  0.7526999999999973  0.0970193599999973   F   F   F
  0.2474087087977921  0.7542474522942584  0.3874425062854527   T   T   T
  0.4984030000000033  0.7498829999999970  0.0961899200000005   F   F   F
  0.4955049627855530  0.7423552439061183  0.3877455444926241   T   T   T
  0.3320849999999993  0.6626210000000015  0.1952269499999986   F   F   F
  0.1655590782560949  0.5853830478253244  0.2927061147946688   T   T   T
  0.5857939999999999  0.6682610000000011  0.1927013999999971   F   F   F
  0.8308809999999980  0.6587749999999986  0.1924502399999994   F   F   F
  0.6676199991376066  0.5851704882959368  0.2899446353301798   T   T   T
  0.0823549999999997  0.9142709999999994  0.1905052899999973   F   F   F
  0.3339440000000025  0.9158430000000024  0.1941143499999995   F   F   F
  0.5823159999999987  0.9186520000000016  0.1948893599999977   F   F   F
  0.8341939999999965  0.9144939999999977  0.1923658400000008   F   F   F
  0.6667788703207194  0.8339204197195116  0.2927593558300856   T   T   T
 
  0.00000000E+00  0.00000000E+00  0.00000000E+00
  0.00000000E+00  0.00000000E+00  0.00000000E+00
  0.00000000E+00  0.00000000E+00  0.00000000E+00
  0.00000000E+00  0.00000000E+00  0.00000000E+00
  0.00000000E+00  0.00000000E+00  0.00000000E+00
  0.00000000E+00  0.00000000E+00  0.00000000E+00
  0.00000000E+00  0.00000000E+00  0.00000000E+00
  0.00000000E+00  0.00000000E+00  0.00000000E+00
  0.00000000E+00  0.00000000E+00  0.00000000E+00
  0.00000000E+00  0.00000000E+00  0.00000000E+00
  0.00000000E+00  0.00000000E+00  0.00000000E+00
  0.00000000E+00  0.00000000E+00  0.00000000E+00
  0.00000000E+00  0.00000000E+00  0.00000000E+00
  0.00000000E+00  0.00000000E+00  0.00000000E+00
  0.00000000E+00  0.00000000E+00  0.00000000E+00
  0.00000000E+00  0.00000000E+00  0.00000000E+00
  0.00000000E+00  0.00000000E+00  0.00000000E+00
  0.00000000E+00  0.00000000E+00  0.00000000E+00
  0.00000000E+00  0.00000000E+00  0.00000000E+00
  0.00000000E+00  0.00000000E+00  0.00000000E+00
  0.00000000E+00  0.00000000E+00  0.00000000E+00
  0.00000000E+00  0.00000000E+00  0.00000000E+00
  0.00000000E+00  0.00000000E+00  0.00000000E+00
  0.00000000E+00  0.00000000E+00  0.00000000E+00
  0.00000000E+00  0.00000000E+00  0.00000000E+00
  0.00000000E+00  0.00000000E+00  0.00000000E+00
  0.00000000E+00  0.00000000E+00  0.00000000E+00
  0.00000000E+00  0.00000000E+00  0.00000000E+00
  0.00000000E+00  0.00000000E+00  0.00000000E+00
  0.00000000E+00  0.00000000E+00  0.00000000E+00
  0.00000000E+00  0.00000000E+00  0.00000000E+00
  0.00000000E+00  0.00000000E+00  0.00000000E+00
  0.00000000E+00  0.00000000E+00  0.00000000E+00
  0.00000000E+00  0.00000000E+00  0.00000000E+00
  0.00000000E+00  0.00000000E+00  0.00000000E+00
  0.00000000E+00  0.00000000E+00  0.00000000E+00
  0.00000000E+00  0.00000000E+00  0.00000000E+00
  0.00000000E+00  0.00000000E+00  0.00000000E+00
  0.00000000E+00  0.00000000E+00  0.00000000E+00
  0.00000000E+00  0.00000000E+00  0.00000000E+00
  0.00000000E+00  0.00000000E+00  0.00000000E+00
  0.00000000E+00  0.00000000E+00  0.00000000E+00
  0.00000000E+00  0.00000000E+00  0.00000000E+00
  0.00000000E+00  0.00000000E+00  0.00000000E+00
  0.00000000E+00  0.00000000E+00  0.00000000E+00
  0.00000000E+00  0.00000000E+00  0.00000000E+00
  0.00000000E+00  0.00000000E+00  0.00000000E+00
  0.00000000E+00  0.00000000E+00  0.00000000E+00
  0.00000000E+00  0.00000000E+00  0.00000000E+00
  0.00000000E+00  0.00000000E+00  0.00000000E+00
  0.00000000E+00  0.00000000E+00  0.00000000E+00
  0.00000000E+00  0.00000000E+00  0.00000000E+00
  0.00000000E+00  0.00000000E+00  0.00000000E+00
  0.00000000E+00  0.00000000E+00  0.00000000E+00
  0.00000000E+00  0.00000000E+00  0.00000000E+00
  0.00000000E+00  0.00000000E+00  0.00000000E+00
  0.00000000E+00  0.00000000E+00  0.00000000E+00
  0.00000000E+00  0.00000000E+00  0.00000000E+00
  0.00000000E+00  0.00000000E+00  0.00000000E+00
  0.00000000E+00  0.00000000E+00  0.00000000E+00
  0.00000000E+00  0.00000000E+00  0.00000000E+00
  0.00000000E+00  0.00000000E+00  0.00000000E+00
  0.00000000E+00  0.00000000E+00  0.00000000E+00
  0.00000000E+00  0.00000000E+00  0.00000000E+00
