POSCAR                                  
   3.57100000000000     
     2.0000000000000000    1.0000000000000000    1.0000000000000000
    -2.0000000000000000    1.0000000000000000    1.0000000000000000
     0.0000000000000000   -0.5000000000000000    0.5000000000000000
   Ni   Fe
     8     8
Direct
  0.0010596848139480  0.7500476790365513  0.4999998302351840
  0.2490096762219332  0.5015692858281845  0.5000002489606166
  0.5028685063160340  0.7514849910918840  0.5000000887085209
 -0.0033371927983954 -0.0010775485044954  0.0000000037546357
  0.7533004565198551  0.7489633749839454 -0.0000002807972040
  0.7453995233066013  0.4972557919916488  0.4999998004710519
  0.4965704376671105 -0.0004132618919273 -0.0000000110227126
  0.7541391857353488  0.2505479406607166  0.0000001189456353
 -0.0034907926945065  0.4998555186782215 -0.0000000201989812
  0.2562323867663531  0.7504557378696138 -0.0000001088512840
  0.0017693995155151  0.2477772052074912  0.5000000994812487
  0.2522166244740537  0.2538224100973782  0.0000001844874591
  0.5006659151148187  0.5076343664073171  0.0000000724438391
  0.2433589844101333 -0.0014996771296534  0.4999999757307975
  0.5060516551991640  0.2463776291292936  0.5000000356455472
  0.7441855494320326 -0.0028014434561915  0.4999999620056534
 
  0.00000000E+00  0.00000000E+00  0.00000000E+00
  0.00000000E+00  0.00000000E+00  0.00000000E+00
  0.00000000E+00  0.00000000E+00  0.00000000E+00
  0.00000000E+00  0.00000000E+00  0.00000000E+00
  0.00000000E+00  0.00000000E+00  0.00000000E+00
  0.00000000E+00  0.00000000E+00  0.00000000E+00
  0.00000000E+00  0.00000000E+00  0.00000000E+00
  0.00000000E+00  0.00000000E+00  0.00000000E+00
  0.00000000E+00  0.00000000E+00  0.00000000E+00
  0.00000000E+00  0.00000000E+00  0.00000000E+00
  0.00000000E+00  0.00000000E+00  0.00000000E+00
  0.00000000E+00  0.00000000E+00  0.00000000E+00
  0.00000000E+00  0.00000000E+00  0.00000000E+00
  0.00000000E+00  0.00000000E+00  0.00000000E+00
  0.00000000E+00  0.00000000E+00  0.00000000E+00
  0.00000000E+00  0.00000000E+00  0.00000000E+00
