POSCAR                                  
   1.00000000000000     
    10.1003100000000003    0.0000000000000000    0.0000000000000000
    -5.0501550000000002    8.7471250499999993    0.0000000000000000
     0.0000000000000000    0.0000000000000000   21.2537999999999982
   Ni   Fe   O 
    33    31     5
Selective dynamics
Direct
  0.9990430000000003  0.0006419999999991  0.1905229999999989   F   F   F
  0.2484910000000013  0.9986279999999965  0.1920550000000034   F   F   F
  0.4990250000000032  0.0019270000000020  0.1918059999999997   F   F   F
  0.9981390000000019  0.2506739999999965  0.1919419999999974   F   F   F
  0.2492149999999995  0.2488620000000026  0.1911860000000019   F   F   F
  0.3334545128784754  0.1650385298551456  0.2862396895884416   T   T   T
  0.7489350000000030  0.2527809999999988  0.1931749999999965   F   F   F
  0.4183749999999975  0.0839399999999983  0.0941180000000017   F   F   F
  0.4127378249242213  0.0874507905428459  0.3811479769102206   T   T   T
  0.8322202166220549  0.1635869954181999  0.2904592449493890   T   T   T
  0.6679699999999968  0.0847229999999968  0.0956929999999971   F   F   F
  0.6619976525311415  0.0913694745543907  0.3897116546083481   T   T   T
  0.9990859999999984  0.4991079999999997  0.1930400000000034   F   F   F
  0.7481689999999972  0.4987110000000001  0.1920459999999977   F   F   F
  0.5819337900088755  0.4118371553133926  0.2855555524339621   T   T   T
  0.4196099999999987  0.3333709999999996  0.0941400000000030   F   F   F
  0.4149736073511932  0.3323496167659172  0.3813591358170854   T   T   T
  0.8293120080114207  0.4130523588095514  0.2869718487268003   T   T   T
  0.9185590000000019  0.3350160000000031  0.0956869999999981   F   F   F
  0.9144706828250122  0.3334997740069596  0.3835811152992790   T   T   T
  0.9976580000000013  0.7489690000000024  0.1925600000000003   F   F   F
  0.0792013151762561  0.6617327280104845  0.2872403883846175   T   T   T
  0.7534649999999985  0.7517280000000000  0.1916289999999989   F   F   F
  0.4173729999999978  0.5835239999999970  0.0962340000000026   F   F   F
  0.4135878700253741  0.5847051137892976  0.3854957152742742   T   T   T
  0.9155080000000027  0.5846190000000036  0.0954290000000029   F   F   F
  0.9068285866472365  0.5828740330040389  0.3844647725372567   T   T   T
  0.1668289999999999  0.8349079999999987  0.0945669999999978   F   F   F
  0.1638306893803971  0.8356837500880374  0.3769785482033683   T   T   T
  0.4171529999999990  0.8333879999999994  0.0967929999999981   F   F   F
  0.4062448408537449  0.8264133134922176  0.3846605329542285   T   T   T
  0.9198510000000013  0.8326369999999983  0.0953980000000030   F   F   F
  0.9143420171850281  0.8256773689188037  0.3830383594969007   T   T   T
  0.7491819999999976  0.0045379999999966  0.1931129999999968   F   F   F
  0.0809035187480873  0.1640757347341406  0.2851340967578935   T   T   T
  0.4931899999999985  0.2454400000000021  0.1916780000000031   F   F   F
  0.1713960000000014  0.0833930000000009  0.0953590000000020   F   F   F
  0.1758709741812154  0.0907438287453672  0.3808071077786579   T   T   T
  0.5834643357393716  0.1561027816205041  0.2867273998848177   T   T   T
  0.9169309999999982  0.0858149999999966  0.0941010000000020   F   F   F
  0.9192150219484745  0.0893515328553676  0.3890031328476056   T   T   T
  0.2459640000000007  0.4966930000000005  0.1936990000000023   F   F   F
  0.0736861243892974  0.4151885576718470  0.2871172826285289   T   T   T
  0.5029729999999972  0.4996209999999977  0.1909629999999964   F   F   F
  0.3356948057537821  0.4145463007282046  0.2867846736700130   T   T   T
  0.1708140000000000  0.3372420000000034  0.0955050000000028   F   F   F
  0.1672692955467525  0.3371931676380200  0.3782610116921461   T   T   T
  0.6726469999999978  0.3359809999999968  0.0960030000000032   F   F   F
  0.6661889224906616  0.3381386726860569  0.3782398708156336   T   T   T
  0.2449050000000028  0.7526999999999973  0.1934359999999984   F   F   F
  0.4984030000000033  0.7498829999999970  0.1926070000000024   F   F   F
  0.3349054371014546  0.6602785291758053  0.2894166526196003   T   T   T
  0.1647060000000025  0.5862709999999964  0.0973309999999969   F   F   F
  0.1668927096129664  0.5887243103092601  0.3862440720069245   T   T   T
  0.5869890167619829  0.6644277914733507  0.2868437574526510   T   T   T
  0.8289017827006404  0.6567021355890290  0.2874095778019026   T   T   T
  0.6676250000000010  0.5842620000000025  0.0951990000000009   F   F   F
  0.6670008128173635  0.5895030579497345  0.3857303833046046   T   T   T
  0.0792141659189127  0.9113316783424210  0.2844613635664999   T   T   T
  0.3301391642775897  0.9104189164729988  0.2867523044003164   T   T   T
  0.5782378875331062  0.9125592926015642  0.2846487998585161   T   T   T
  0.8315410361163202  0.9140951430957145  0.2882817032597842   T   T   T
  0.6684139999999985  0.8335110000000014  0.0965980000000002   F   F   F
  0.6576761414859433  0.8302343032737696  0.3831684162128184   T   T   T
  0.0154364110520575  0.0023182436584079  0.4341351257506929   T   T   T
  0.5021192334474307  0.4973538859847295  0.4373504433044104   T   T   T
  0.9988707536847201  0.5019700988767681  0.4372444217939773   T   T   T
  0.4780359605353084  0.9962736634514542  0.4358002646613173   T   T   T
  0.7462017395787157  0.9939055469517371  0.4371539252212742   T   T   T
 
  0.00000000E+00  0.00000000E+00  0.00000000E+00
  0.00000000E+00  0.00000000E+00  0.00000000E+00
  0.00000000E+00  0.00000000E+00  0.00000000E+00
  0.00000000E+00  0.00000000E+00  0.00000000E+00
  0.00000000E+00  0.00000000E+00  0.00000000E+00
  0.00000000E+00  0.00000000E+00  0.00000000E+00
  0.00000000E+00  0.00000000E+00  0.00000000E+00
  0.00000000E+00  0.00000000E+00  0.00000000E+00
  0.00000000E+00  0.00000000E+00  0.00000000E+00
  0.00000000E+00  0.00000000E+00  0.00000000E+00
  0.00000000E+00  0.00000000E+00  0.00000000E+00
  0.00000000E+00  0.00000000E+00  0.00000000E+00
  0.00000000E+00  0.00000000E+00  0.00000000E+00
  0.00000000E+00  0.00000000E+00  0.00000000E+00
  0.00000000E+00  0.00000000E+00  0.00000000E+00
  0.00000000E+00  0.00000000E+00  0.00000000E+00
  0.00000000E+00  0.00000000E+00  0.00000000E+00
  0.00000000E+00  0.00000000E+00  0.00000000E+00
  0.00000000E+00  0.00000000E+00  0.00000000E+00
  0.00000000E+00  0.00000000E+00  0.00000000E+00
  0.00000000E+00  0.00000000E+00  0.00000000E+00
  0.00000000E+00  0.00000000E+00  0.00000000E+00
  0.00000000E+00  0.00000000E+00  0.00000000E+00
  0.00000000E+00  0.00000000E+00  0.00000000E+00
  0.00000000E+00  0.00000000E+00  0.00000000E+00
  0.00000000E+00  0.00000000E+00  0.00000000E+00
  0.00000000E+00  0.00000000E+00  0.00000000E+00
  0.00000000E+00  0.00000000E+00  0.00000000E+00
  0.00000000E+00  0.00000000E+00  0.00000000E+00
  0.00000000E+00  0.00000000E+00  0.00000000E+00
  0.00000000E+00  0.00000000E+00  0.00000000E+00
  0.00000000E+00  0.00000000E+00  0.00000000E+00
  0.00000000E+00  0.00000000E+00  0.00000000E+00
  0.00000000E+00  0.00000000E+00  0.00000000E+00
  0.00000000E+00  0.00000000E+00  0.00000000E+00
  0.00000000E+00  0.00000000E+00  0.00000000E+00
  0.00000000E+00  0.00000000E+00  0.00000000E+00
  0.00000000E+00  0.00000000E+00  0.00000000E+00
  0.00000000E+00  0.00000000E+00  0.00000000E+00
  0.00000000E+00  0.00000000E+00  0.00000000E+00
  0.00000000E+00  0.00000000E+00  0.00000000E+00
  0.00000000E+00  0.00000000E+00  0.00000000E+00
  0.00000000E+00  0.00000000E+00  0.00000000E+00
  0.00000000E+00  0.00000000E+00  0.00000000E+00
  0.00000000E+00  0.00000000E+00  0.00000000E+00
  0.00000000E+00  0.00000000E+00  0.00000000E+00
  0.00000000E+00  0.00000000E+00  0.00000000E+00
  0.00000000E+00  0.00000000E+00  0.00000000E+00
  0.00000000E+00  0.00000000E+00  0.00000000E+00
  0.00000000E+00  0.00000000E+00  0.00000000E+00
  0.00000000E+00  0.00000000E+00  0.00000000E+00
  0.00000000E+00  0.00000000E+00  0.00000000E+00
  0.00000000E+00  0.00000000E+00  0.00000000E+00
  0.00000000E+00  0.00000000E+00  0.00000000E+00
  0.00000000E+00  0.00000000E+00  0.00000000E+00
  0.00000000E+00  0.00000000E+00  0.00000000E+00
  0.00000000E+00  0.00000000E+00  0.00000000E+00
  0.00000000E+00  0.00000000E+00  0.00000000E+00
  0.00000000E+00  0.00000000E+00  0.00000000E+00
  0.00000000E+00  0.00000000E+00  0.00000000E+00
  0.00000000E+00  0.00000000E+00  0.00000000E+00
  0.00000000E+00  0.00000000E+00  0.00000000E+00
  0.00000000E+00  0.00000000E+00  0.00000000E+00
  0.00000000E+00  0.00000000E+00  0.00000000E+00
  0.00000000E+00  0.00000000E+00  0.00000000E+00
  0.00000000E+00  0.00000000E+00  0.00000000E+00
  0.00000000E+00  0.00000000E+00  0.00000000E+00
  0.00000000E+00  0.00000000E+00  0.00000000E+00
  0.00000000E+00  0.00000000E+00  0.00000000E+00
