POSCAR                                  
   3.57100000000000     
     2.0000000000000000    1.0000000000000000    1.0000000000000000
    -2.0000000000000000    1.0000000000000000    1.0000000000000000
     0.0000000000000000   -0.5000000000000000    0.5000000000000000
   Ni   Fe
     8     8
Direct
  0.0023523670480410  0.7479753781047948  0.5000000770043399
  0.2516870714431905  0.4979564126194684  0.5000005387244005
  0.4953610577299430  0.7484947001754144  0.4999999766654751
  0.0028255091587906  0.0046571864505868  0.9999999884780966
  0.7467111149661716  0.7539530295901814  0.0000000200197843
  0.7493640325209903  0.4988714301233561  0.4999998063527575
  0.5010935884121072  0.0024762079103094  0.9999997439618196
  0.7495730451384353  0.2479251599211066  0.0000000513041063
  0.0068236651722075  0.4968866411712180  0.0000006897556037
  0.2442528661150749  0.7506506254294533  0.0000000385935353
  0.0004932255327879  0.2552175602475023  0.4999998177875659
  0.2519093713930801  0.2442351993085450 -0.0000000722136836
  0.4977707503560664  0.4881149027727802 -0.0000000073098964
  0.2545734405751742  0.0026934251765672  0.4999992609665223
  0.4886937581461915  0.2538232252789793  0.4999998859538287
  0.7565151362917552  0.0060689157197156  0.5000001839557514
 
  0.00000000E+00  0.00000000E+00  0.00000000E+00
  0.00000000E+00  0.00000000E+00  0.00000000E+00
  0.00000000E+00  0.00000000E+00  0.00000000E+00
  0.00000000E+00  0.00000000E+00  0.00000000E+00
  0.00000000E+00  0.00000000E+00  0.00000000E+00
  0.00000000E+00  0.00000000E+00  0.00000000E+00
  0.00000000E+00  0.00000000E+00  0.00000000E+00
  0.00000000E+00  0.00000000E+00  0.00000000E+00
  0.00000000E+00  0.00000000E+00  0.00000000E+00
  0.00000000E+00  0.00000000E+00  0.00000000E+00
  0.00000000E+00  0.00000000E+00  0.00000000E+00
  0.00000000E+00  0.00000000E+00  0.00000000E+00
  0.00000000E+00  0.00000000E+00  0.00000000E+00
  0.00000000E+00  0.00000000E+00  0.00000000E+00
  0.00000000E+00  0.00000000E+00  0.00000000E+00
  0.00000000E+00  0.00000000E+00  0.00000000E+00
