POSCAR                                  
   1.00000000000000     
    10.0267700000000008    0.0000000000000000    0.0000000000000000
    -5.0133850000000004    8.6834375399999999    0.0000000000000000
     0.0000000000000000    0.0000000000000000   21.2434582200000008
   Ni   Fe
    45    19
Selective dynamics
Direct
  0.0005290000000002  0.0005299999999977  0.1934385200000008   F   F   F
  0.2500130000000027  0.0002870000000001  0.1925826900000018   F   F   F
  0.4994870000000020  0.9990799999999993  0.1933064299999998   F   F   F
  0.7493020000000001  0.9991929999999982  0.1933879400000009   F   F   F
  0.9986400000000017  0.2485069999999965  0.1932847499999966   F   F   F
  0.2501260000000016  0.2502160000000018  0.1929272200000014   F   F   F
  0.0833611602008212  0.1667394185220721  0.2897136347858844   T   T   T
  0.5006419999999991  0.2489130000000017  0.1933734899999990   F   F   F
  0.3325155828460993  0.1667214566438246  0.2900380901912802   T   T   T
  0.7505250000000032  0.2500619999999998  0.1941981100000021   F   F   F
  0.5820589871986216  0.1675007711775140  0.2908211336821215   T   T   T
  0.8336897296602602  0.1674914713280478  0.2896406847600398   T   T   T
  0.6655810000000031  0.0830550000000017  0.0972433600000002   F   F   F
  0.6661765598607190  0.0834206639843321  0.3847479109782807   T   T   T
  0.9163970000000035  0.0820310000000006  0.0967115300000003   F   F   F
  0.9143897939331884  0.0799421878459552  0.3830165921948857   T   T   T
  0.0018340000000023  0.5004750000000016  0.1918979599999986   F   F   F
  0.0807934155742851  0.4170735710743800  0.2897540068776241   T   T   T
  0.1661179999999973  0.3339519999999965  0.0967375500000003   F   F   F
  0.1671515651885659  0.3335493488003448  0.3833882267166697   T   T   T
  0.7517020000000016  0.5018689999999992  0.1921144499999983   F   F   F
  0.5840628469215761  0.4166018685954562  0.2904432819398865   T   T   T
  0.0010910000000024  0.7511530000000022  0.1921916200000027   F   F   F
  0.2490260000000006  0.7488570000000010  0.1920008600000003   F   F   F
  0.0842420381717394  0.6676200482279183  0.2878549968170012   T   T   T
  0.4997249999999980  0.7491729999999990  0.1921497100000025   F   F   F
  0.3317091223743023  0.6655352247584776  0.2879804125950766   T   T   T
  0.7512830000000008  0.7509360000000029  0.1929399300000014   F   F   F
  0.5831303061522290  0.6662249763017905  0.2882945181944043   T   T   T
  0.4166099999999986  0.5820020000000028  0.0954819800000024   F   F   F
  0.4193587066493344  0.5826128602178328  0.3827918680536467   T   T   T
  0.8338353549965332  0.6666502048621685  0.2883335914791797   T   T   T
  0.9170829999999981  0.5832389999999990  0.0954597200000009   F   F   F
  0.9176315748282181  0.5833352617419744  0.3822963580713906   T   T   T
  0.0839655863837709  0.9176448897687944  0.2881901837711943   T   T   T
  0.3344715781942805  0.9170346251035562  0.2890648403728274   T   T   T
  0.1667089999999973  0.8352420000000009  0.0960294099999999   F   F   F
  0.1667424677262439  0.8361027087523080  0.3815189365489464   T   T   T
  0.4170349999999985  0.8321490000000011  0.0967207799999983   F   F   F
  0.4188867644503178  0.8326314666352205  0.3834874525404835   T   T   T
  0.8324715083213609  0.9168047803099261  0.2892001093252270   T   T   T
  0.6662389999999974  0.8333700000000022  0.0970022999999998   F   F   F
  0.6668233476378037  0.8354978049366724  0.3837016975277866   T   T   T
  0.9170590000000018  0.8331950000000035  0.0968236800000000   F   F   F
  0.9164526481494270  0.8334076265873629  0.3820873778180729   T   T   T
  0.1616849999999985  0.0821150000000017  0.0959701600000002   F   F   F
  0.1611956263680601  0.0816973743013852  0.3837104934717484   T   T   T
  0.4160749999999993  0.0780710000000013  0.0964354999999983   F   F   F
  0.4154618913563428  0.0769832956300965  0.3840688737876987   T   T   T
  0.2482990000000029  0.4990459999999999  0.1926422299999970   F   F   F
  0.5064810000000008  0.5025949999999995  0.1933847600000007   F   F   F
  0.3328071907335804  0.4159238250072367  0.2909124880636105   T   T   T
  0.4163840000000008  0.3314430000000002  0.0971829499999970   F   F   F
  0.4198118544642389  0.3319105375614105  0.3880294593485318   T   T   T
  0.8331782611104235  0.4177370245833298  0.2892293401445061   T   T   T
  0.6673240000000007  0.3324059999999989  0.0990110999999985   F   F   F
  0.6678790481874898  0.3336739217690452  0.3878752038789019   T   T   T
  0.9144640000000024  0.3269549999999981  0.0986223499999994   F   F   F
  0.9157028925247382  0.3263561131161367  0.3862927869305224   T   T   T
  0.1691420000000008  0.5883340000000032  0.0941466299999973   F   F   F
  0.1697392443703386  0.5869000105049000  0.3826330866120352   T   T   T
  0.6696159999999978  0.5892890000000008  0.0945278700000003   F   F   F
  0.6705160446800698  0.5902568002216051  0.3827646020810122   T   T   T
  0.5830376451528392  0.9162262130441201  0.2892966594240511   T   T   T
 
  0.00000000E+00  0.00000000E+00  0.00000000E+00
  0.00000000E+00  0.00000000E+00  0.00000000E+00
  0.00000000E+00  0.00000000E+00  0.00000000E+00
  0.00000000E+00  0.00000000E+00  0.00000000E+00
  0.00000000E+00  0.00000000E+00  0.00000000E+00
  0.00000000E+00  0.00000000E+00  0.00000000E+00
  0.00000000E+00  0.00000000E+00  0.00000000E+00
  0.00000000E+00  0.00000000E+00  0.00000000E+00
  0.00000000E+00  0.00000000E+00  0.00000000E+00
  0.00000000E+00  0.00000000E+00  0.00000000E+00
  0.00000000E+00  0.00000000E+00  0.00000000E+00
  0.00000000E+00  0.00000000E+00  0.00000000E+00
  0.00000000E+00  0.00000000E+00  0.00000000E+00
  0.00000000E+00  0.00000000E+00  0.00000000E+00
  0.00000000E+00  0.00000000E+00  0.00000000E+00
  0.00000000E+00  0.00000000E+00  0.00000000E+00
  0.00000000E+00  0.00000000E+00  0.00000000E+00
  0.00000000E+00  0.00000000E+00  0.00000000E+00
  0.00000000E+00  0.00000000E+00  0.00000000E+00
  0.00000000E+00  0.00000000E+00  0.00000000E+00
  0.00000000E+00  0.00000000E+00  0.00000000E+00
  0.00000000E+00  0.00000000E+00  0.00000000E+00
  0.00000000E+00  0.00000000E+00  0.00000000E+00
  0.00000000E+00  0.00000000E+00  0.00000000E+00
  0.00000000E+00  0.00000000E+00  0.00000000E+00
  0.00000000E+00  0.00000000E+00  0.00000000E+00
  0.00000000E+00  0.00000000E+00  0.00000000E+00
  0.00000000E+00  0.00000000E+00  0.00000000E+00
  0.00000000E+00  0.00000000E+00  0.00000000E+00
  0.00000000E+00  0.00000000E+00  0.00000000E+00
  0.00000000E+00  0.00000000E+00  0.00000000E+00
  0.00000000E+00  0.00000000E+00  0.00000000E+00
  0.00000000E+00  0.00000000E+00  0.00000000E+00
  0.00000000E+00  0.00000000E+00  0.00000000E+00
  0.00000000E+00  0.00000000E+00  0.00000000E+00
  0.00000000E+00  0.00000000E+00  0.00000000E+00
  0.00000000E+00  0.00000000E+00  0.00000000E+00
  0.00000000E+00  0.00000000E+00  0.00000000E+00
  0.00000000E+00  0.00000000E+00  0.00000000E+00
  0.00000000E+00  0.00000000E+00  0.00000000E+00
  0.00000000E+00  0.00000000E+00  0.00000000E+00
  0.00000000E+00  0.00000000E+00  0.00000000E+00
  0.00000000E+00  0.00000000E+00  0.00000000E+00
  0.00000000E+00  0.00000000E+00  0.00000000E+00
  0.00000000E+00  0.00000000E+00  0.00000000E+00
  0.00000000E+00  0.00000000E+00  0.00000000E+00
  0.00000000E+00  0.00000000E+00  0.00000000E+00
  0.00000000E+00  0.00000000E+00  0.00000000E+00
  0.00000000E+00  0.00000000E+00  0.00000000E+00
  0.00000000E+00  0.00000000E+00  0.00000000E+00
  0.00000000E+00  0.00000000E+00  0.00000000E+00
  0.00000000E+00  0.00000000E+00  0.00000000E+00
  0.00000000E+00  0.00000000E+00  0.00000000E+00
  0.00000000E+00  0.00000000E+00  0.00000000E+00
  0.00000000E+00  0.00000000E+00  0.00000000E+00
  0.00000000E+00  0.00000000E+00  0.00000000E+00
  0.00000000E+00  0.00000000E+00  0.00000000E+00
  0.00000000E+00  0.00000000E+00  0.00000000E+00
  0.00000000E+00  0.00000000E+00  0.00000000E+00
  0.00000000E+00  0.00000000E+00  0.00000000E+00
  0.00000000E+00  0.00000000E+00  0.00000000E+00
  0.00000000E+00  0.00000000E+00  0.00000000E+00
  0.00000000E+00  0.00000000E+00  0.00000000E+00
  0.00000000E+00  0.00000000E+00  0.00000000E+00
