POSCAR                                  
   1.00000000000000     
    10.0267700000000008    0.0000000000000000    0.0000000000000000
    -5.0133850000000004    8.6834375399999999    0.0000000000000000
     0.0000000000000000    0.0000000000000000   21.2434582200000008
   Ni   Fe
    45    19
Selective dynamics
Direct
  0.0005290000000002  0.0005299999999977  0.1934385200000008   F   F   F
  0.2500130000000027  0.0002870000000001  0.1925826900000018   F   F   F
  0.4994870000000020  0.9990799999999993  0.1933064299999998   F   F   F
  0.7493020000000001  0.9991929999999982  0.1933879400000009   F   F   F
  0.9986400000000017  0.2485069999999965  0.1932847499999966   F   F   F
  0.2501260000000016  0.2502160000000018  0.1929272200000014   F   F   F
  0.0856312072299718  0.1670476123333531  0.2885421729733385   T   T   T
  0.5006419999999991  0.2489130000000017  0.1933734899999990   F   F   F
  0.3333941022678532  0.1668189852957054  0.2860266221339975   T   T   T
  0.7505250000000032  0.2500619999999998  0.1941981100000021   F   F   F
  0.5842430695468739  0.1643664410084892  0.2879140440120655   T   T   T
  0.8323597041469353  0.1651900605007262  0.2888784300951530   T   T   T
  0.6655810000000031  0.0830550000000017  0.0972433600000002   F   F   F
  0.6650979136710563  0.0865732151119242  0.3821311142785437   T   T   T
  0.9163970000000035  0.0820310000000006  0.0967115300000003   F   F   F
  0.9192408425003505  0.0857328257081826  0.3822087297708217   T   T   T
  0.0018340000000023  0.5004750000000016  0.1918979599999986   F   F   F
  0.0860870646482343  0.4158340395746548  0.2853192370189048   T   T   T
  0.1661179999999973  0.3339519999999965  0.0967375500000003   F   F   F
  0.1689768185737533  0.3326867320101753  0.3812533589368453   T   T   T
  0.7517020000000016  0.5018689999999992  0.1921144499999983   F   F   F
  0.5849342926190251  0.4171640292067886  0.2848189657103551   T   T   T
  0.0010910000000024  0.7511530000000022  0.1921916200000027   F   F   F
  0.2490260000000006  0.7488570000000010  0.1920008600000003   F   F   F
  0.0809410133354852  0.6631138678221079  0.2879484717124114   T   T   T
  0.4997249999999980  0.7491729999999990  0.1921497100000025   F   F   F
  0.3338652488887887  0.6653177240751683  0.2868478945442748   T   T   T
  0.7512830000000008  0.7509360000000029  0.1929399300000014   F   F   F
  0.5832269816848239  0.6670459638407888  0.2877604237489572   T   T   T
  0.4166099999999986  0.5820020000000028  0.0954819800000024   F   F   F
  0.4143064520924349  0.5798456765477696  0.3814351954768146   T   T   T
  0.8336041903286856  0.6653249020891832  0.2880957694621287   T   T   T
  0.9170829999999981  0.5832389999999990  0.0954597200000009   F   F   F
  0.9123669766577887  0.5811965521024699  0.3837387197575605   T   T   T
  0.0834679977005208  0.9171106128825197  0.2883276285155412   T   T   T
  0.3350680041822223  0.9163421164818799  0.2877748153862083   T   T   T
  0.1667089999999973  0.8352420000000009  0.0960294099999999   F   F   F
  0.1678347988848400  0.8336305649277211  0.3818297781765920   T   T   T
  0.4170349999999985  0.8321490000000011  0.0967207799999983   F   F   F
  0.4160829465590529  0.8332940126263216  0.3807856273624211   T   T   T
  0.8316755619943209  0.9164474378406672  0.2879870437410315   T   T   T
  0.6662389999999974  0.8333700000000022  0.0970022999999998   F   F   F
  0.6658002563863070  0.8323577337115805  0.3814868374814075   T   T   T
  0.9170590000000018  0.8331950000000035  0.0968236800000000   F   F   F
  0.9168817730353107  0.8337165864159927  0.3816925163908697   T   T   T
  0.1616849999999985  0.0821150000000017  0.0959701600000002   F   F   F
  0.1807707760683268  0.0893081270158244  0.3781782821991616   T   T   T
  0.4160749999999993  0.0780710000000013  0.0964354999999983   F   F   F
  0.4144427432691154  0.0924745115097013  0.3777077086276006   T   T   T
  0.2482990000000029  0.4990459999999999  0.1926422299999970   F   F   F
  0.5064810000000008  0.5025949999999995  0.1933847600000007   F   F   F
  0.3385089576080065  0.4203842056514395  0.2860729410014417   T   T   T
  0.4163840000000008  0.3314430000000002  0.0971829499999970   F   F   F
  0.4173027416247338  0.3335084311131046  0.3746070957143120   T   T   T
  0.8338570275005494  0.4138294952006574  0.2913777864954984   T   T   T
  0.6673240000000007  0.3324059999999989  0.0990110999999985   F   F   F
  0.6642638796101156  0.3380697080318058  0.3759876731677427   T   T   T
  0.9144640000000024  0.3269549999999981  0.0986223499999994   F   F   F
  0.9220624760556710  0.3447701624912375  0.3764450516183358   T   T   T
  0.1691420000000008  0.5883340000000032  0.0941466299999973   F   F   F
  0.1553193665119798  0.5717943836497389  0.3772204603025195   T   T   T
  0.6696159999999978  0.5892890000000008  0.0945278700000003   F   F   F
  0.6597817487762475  0.5692988553644557  0.3777806086892671   T   T   T
  0.5837296193476561  0.9158596082349678  0.2886397588503101   T   T   T
 
  0.00000000E+00  0.00000000E+00  0.00000000E+00
  0.00000000E+00  0.00000000E+00  0.00000000E+00
  0.00000000E+00  0.00000000E+00  0.00000000E+00
  0.00000000E+00  0.00000000E+00  0.00000000E+00
  0.00000000E+00  0.00000000E+00  0.00000000E+00
  0.00000000E+00  0.00000000E+00  0.00000000E+00
  0.00000000E+00  0.00000000E+00  0.00000000E+00
  0.00000000E+00  0.00000000E+00  0.00000000E+00
  0.00000000E+00  0.00000000E+00  0.00000000E+00
  0.00000000E+00  0.00000000E+00  0.00000000E+00
  0.00000000E+00  0.00000000E+00  0.00000000E+00
  0.00000000E+00  0.00000000E+00  0.00000000E+00
  0.00000000E+00  0.00000000E+00  0.00000000E+00
  0.00000000E+00  0.00000000E+00  0.00000000E+00
  0.00000000E+00  0.00000000E+00  0.00000000E+00
  0.00000000E+00  0.00000000E+00  0.00000000E+00
  0.00000000E+00  0.00000000E+00  0.00000000E+00
  0.00000000E+00  0.00000000E+00  0.00000000E+00
  0.00000000E+00  0.00000000E+00  0.00000000E+00
  0.00000000E+00  0.00000000E+00  0.00000000E+00
  0.00000000E+00  0.00000000E+00  0.00000000E+00
  0.00000000E+00  0.00000000E+00  0.00000000E+00
  0.00000000E+00  0.00000000E+00  0.00000000E+00
  0.00000000E+00  0.00000000E+00  0.00000000E+00
  0.00000000E+00  0.00000000E+00  0.00000000E+00
  0.00000000E+00  0.00000000E+00  0.00000000E+00
  0.00000000E+00  0.00000000E+00  0.00000000E+00
  0.00000000E+00  0.00000000E+00  0.00000000E+00
  0.00000000E+00  0.00000000E+00  0.00000000E+00
  0.00000000E+00  0.00000000E+00  0.00000000E+00
  0.00000000E+00  0.00000000E+00  0.00000000E+00
  0.00000000E+00  0.00000000E+00  0.00000000E+00
  0.00000000E+00  0.00000000E+00  0.00000000E+00
  0.00000000E+00  0.00000000E+00  0.00000000E+00
  0.00000000E+00  0.00000000E+00  0.00000000E+00
  0.00000000E+00  0.00000000E+00  0.00000000E+00
  0.00000000E+00  0.00000000E+00  0.00000000E+00
  0.00000000E+00  0.00000000E+00  0.00000000E+00
  0.00000000E+00  0.00000000E+00  0.00000000E+00
  0.00000000E+00  0.00000000E+00  0.00000000E+00
  0.00000000E+00  0.00000000E+00  0.00000000E+00
  0.00000000E+00  0.00000000E+00  0.00000000E+00
  0.00000000E+00  0.00000000E+00  0.00000000E+00
  0.00000000E+00  0.00000000E+00  0.00000000E+00
  0.00000000E+00  0.00000000E+00  0.00000000E+00
  0.00000000E+00  0.00000000E+00  0.00000000E+00
  0.00000000E+00  0.00000000E+00  0.00000000E+00
  0.00000000E+00  0.00000000E+00  0.00000000E+00
  0.00000000E+00  0.00000000E+00  0.00000000E+00
  0.00000000E+00  0.00000000E+00  0.00000000E+00
  0.00000000E+00  0.00000000E+00  0.00000000E+00
  0.00000000E+00  0.00000000E+00  0.00000000E+00
  0.00000000E+00  0.00000000E+00  0.00000000E+00
  0.00000000E+00  0.00000000E+00  0.00000000E+00
  0.00000000E+00  0.00000000E+00  0.00000000E+00
  0.00000000E+00  0.00000000E+00  0.00000000E+00
  0.00000000E+00  0.00000000E+00  0.00000000E+00
  0.00000000E+00  0.00000000E+00  0.00000000E+00
  0.00000000E+00  0.00000000E+00  0.00000000E+00
  0.00000000E+00  0.00000000E+00  0.00000000E+00
  0.00000000E+00  0.00000000E+00  0.00000000E+00
  0.00000000E+00  0.00000000E+00  0.00000000E+00
  0.00000000E+00  0.00000000E+00  0.00000000E+00
  0.00000000E+00  0.00000000E+00  0.00000000E+00
