POSCAR                                  
   1.00000000000000     
     9.9295000000000009    0.0000000000000000    0.0000000000000000
     3.3098332300000002    9.3616224199999998    0.0000000000000000
     0.0000000000000000    0.0000000000000000   21.0805499999999988
   Fe   O 
    64     4
Selective dynamics
Direct
  0.0873890000000017  0.1626109999999983  0.0948739999999972   F   F   F
  0.0872375841278300  0.1624706917430597  0.2861273158176822   T   T   T
  0.2123890000000017  0.0376109999999983  0.1910219999999967   F   F   F
  0.2155853760976090  0.0406745383529448  0.3806551319891428   T   T   T
  0.3373890000000017  0.1626109999999983  0.0948739999999972   F   F   F
  0.3373325167220910  0.1624903999406218  0.2839856005324854   T   T   T
  0.4623890000000017  0.0376109999999983  0.1910219999999967   F   F   F
  0.4719132526161322  0.0282007203771175  0.3774835498394277   T   T   T
  0.5873890000000017  0.1626109999999983  0.0948739999999972   F   F   F
  0.5872570843933262  0.1627054436995754  0.2862251767917602   T   T   T
  0.7123890000000017  0.0376109999999983  0.1910219999999967   F   F   F
  0.7155133305791205  0.0410028945710606  0.3807514429574111   T   T   T
  0.8373890000000017  0.1626109999999983  0.0948739999999972   F   F   F
  0.8372412483570664  0.1625236012536587  0.2839306293134878   T   T   T
  0.9623890000000017  0.0376109999999983  0.1910219999999967   F   F   F
  0.9719737491724730  0.0279304291474146  0.3773644039003690   T   T   T
  0.0873890000000017  0.4126109999999983  0.0948739999999972   F   F   F
  0.0872970301941264  0.4125121061437613  0.2842833487434273   T   T   T
  0.2123890000000017  0.2876109999999983  0.1910219999999967   F   F   F
  0.2028403112255584  0.2969013715777978  0.3773516544635827   T   T   T
  0.3373890000000017  0.4126109999999983  0.0948739999999972   F   F   F
  0.3373715189393494  0.4126074905240006  0.2861969244434345   T   T   T
  0.4623890000000017  0.2876109999999983  0.1910219999999967   F   F   F
  0.4590231037823811  0.2846210327600657  0.3807410012800129   T   T   T
  0.5873890000000017  0.4126109999999983  0.0948739999999972   F   F   F
  0.5874523823026184  0.4127113767243148  0.2842797793839640   T   T   T
  0.7123890000000017  0.2876109999999983  0.1910219999999967   F   F   F
  0.7026573030834607  0.2973487024996360  0.3773830433837994   T   T   T
  0.8373890000000017  0.4126109999999983  0.0948739999999972   F   F   F
  0.8373713252765410  0.4126126509620447  0.2861674835976875   T   T   T
  0.9623890000000017  0.2876109999999983  0.1910219999999967   F   F   F
  0.9591157003969050  0.2842385894989908  0.3805799802385086   T   T   T
  0.0873890000000017  0.6626109999999983  0.0948739999999972   F   F   F
  0.0874881290609768  0.6625147499384396  0.2862269717929242   T   T   T
  0.2123890000000017  0.5376109999999983  0.1910219999999967   F   F   F
  0.2156921049324196  0.5405743378822465  0.3807477900363904   T   T   T
  0.3373890000000017  0.6626109999999983  0.0948739999999972   F   F   F
  0.3374162198498694  0.6627278920566362  0.2839860393551400   T   T   T
  0.4623890000000017  0.5376109999999983  0.1910219999999967   F   F   F
  0.4718745970257450  0.5283121187273719  0.3773532979709214   T   T   T
  0.5873890000000017  0.6626109999999983  0.0948739999999972   F   F   F
  0.5875090139704353  0.6627481517166095  0.2861246413386714   T   T   T
  0.7123890000000017  0.5376109999999983  0.1910219999999967   F   F   F
  0.7155847990889198  0.5410060511222907  0.3805842037941218   T   T   T
  0.8373890000000017  0.6626109999999983  0.0948739999999972   F   F   F
  0.8375009189256276  0.6626989678262765  0.2839306340296754   T   T   T
  0.9623890000000017  0.5376109999999983  0.1910219999999967   F   F   F
  0.9720531164998060  0.5278932852219185  0.3773813101972037   T   T   T
  0.0873890000000017  0.9126109999999983  0.0948739999999972   F   F   F
  0.0873539773965569  0.9124520234086110  0.2843317040337988   T   T   T
  0.2123890000000017  0.7876109999999983  0.1910219999999967   F   F   F
  0.2027994274481916  0.7970099236292542  0.3774834562321338   T   T   T
  0.3373890000000017  0.9126109999999983  0.0948739999999972   F   F   F
  0.3373711239915839  0.9126070791967852  0.2861603025700685   T   T   T
  0.4623890000000017  0.7876109999999983  0.1910219999999967   F   F   F
  0.4591210068058039  0.7845215405398552  0.3806494146527165   T   T   T
  0.5873890000000017  0.9126109999999983  0.0948739999999972   F   F   F
  0.5873913634000862  0.9127747062399273  0.2843288316530639   T   T   T
  0.7123890000000017  0.7876109999999983  0.1910219999999967   F   F   F
  0.7027255488611106  0.7973149298505370  0.3773668037556807   T   T   T
  0.8373890000000017  0.9126109999999983  0.0948739999999972   F   F   F
  0.8373683084748157  0.9126132760248096  0.2862525187747016   T   T   T
  0.9623890000000017  0.7876109999999983  0.1910219999999967   F   F   F
  0.9591724131148637  0.7842472595697729  0.3807457059042658   T   T   T
  0.3369373068090141  0.1622639953444655  0.4261954156352110   T   T   T
  0.8369480674216220  0.1621565930258649  0.4260280703001645   T   T   T
  0.8377697725866159  0.6630689527110301  0.4260253336603714   T   T   T
  0.3374705477247427  0.6626188190724988  0.4261997760966535   T   T   T
 
  0.00000000E+00  0.00000000E+00  0.00000000E+00
  0.00000000E+00  0.00000000E+00  0.00000000E+00
  0.00000000E+00  0.00000000E+00  0.00000000E+00
  0.00000000E+00  0.00000000E+00  0.00000000E+00
  0.00000000E+00  0.00000000E+00  0.00000000E+00
  0.00000000E+00  0.00000000E+00  0.00000000E+00
  0.00000000E+00  0.00000000E+00  0.00000000E+00
  0.00000000E+00  0.00000000E+00  0.00000000E+00
  0.00000000E+00  0.00000000E+00  0.00000000E+00
  0.00000000E+00  0.00000000E+00  0.00000000E+00
  0.00000000E+00  0.00000000E+00  0.00000000E+00
  0.00000000E+00  0.00000000E+00  0.00000000E+00
  0.00000000E+00  0.00000000E+00  0.00000000E+00
  0.00000000E+00  0.00000000E+00  0.00000000E+00
  0.00000000E+00  0.00000000E+00  0.00000000E+00
  0.00000000E+00  0.00000000E+00  0.00000000E+00
  0.00000000E+00  0.00000000E+00  0.00000000E+00
  0.00000000E+00  0.00000000E+00  0.00000000E+00
  0.00000000E+00  0.00000000E+00  0.00000000E+00
  0.00000000E+00  0.00000000E+00  0.00000000E+00
  0.00000000E+00  0.00000000E+00  0.00000000E+00
  0.00000000E+00  0.00000000E+00  0.00000000E+00
  0.00000000E+00  0.00000000E+00  0.00000000E+00
  0.00000000E+00  0.00000000E+00  0.00000000E+00
  0.00000000E+00  0.00000000E+00  0.00000000E+00
  0.00000000E+00  0.00000000E+00  0.00000000E+00
  0.00000000E+00  0.00000000E+00  0.00000000E+00
  0.00000000E+00  0.00000000E+00  0.00000000E+00
  0.00000000E+00  0.00000000E+00  0.00000000E+00
  0.00000000E+00  0.00000000E+00  0.00000000E+00
  0.00000000E+00  0.00000000E+00  0.00000000E+00
  0.00000000E+00  0.00000000E+00  0.00000000E+00
  0.00000000E+00  0.00000000E+00  0.00000000E+00
  0.00000000E+00  0.00000000E+00  0.00000000E+00
  0.00000000E+00  0.00000000E+00  0.00000000E+00
  0.00000000E+00  0.00000000E+00  0.00000000E+00
  0.00000000E+00  0.00000000E+00  0.00000000E+00
  0.00000000E+00  0.00000000E+00  0.00000000E+00
  0.00000000E+00  0.00000000E+00  0.00000000E+00
  0.00000000E+00  0.00000000E+00  0.00000000E+00
  0.00000000E+00  0.00000000E+00  0.00000000E+00
  0.00000000E+00  0.00000000E+00  0.00000000E+00
  0.00000000E+00  0.00000000E+00  0.00000000E+00
  0.00000000E+00  0.00000000E+00  0.00000000E+00
  0.00000000E+00  0.00000000E+00  0.00000000E+00
  0.00000000E+00  0.00000000E+00  0.00000000E+00
  0.00000000E+00  0.00000000E+00  0.00000000E+00
  0.00000000E+00  0.00000000E+00  0.00000000E+00
  0.00000000E+00  0.00000000E+00  0.00000000E+00
  0.00000000E+00  0.00000000E+00  0.00000000E+00
  0.00000000E+00  0.00000000E+00  0.00000000E+00
  0.00000000E+00  0.00000000E+00  0.00000000E+00
  0.00000000E+00  0.00000000E+00  0.00000000E+00
  0.00000000E+00  0.00000000E+00  0.00000000E+00
  0.00000000E+00  0.00000000E+00  0.00000000E+00
  0.00000000E+00  0.00000000E+00  0.00000000E+00
  0.00000000E+00  0.00000000E+00  0.00000000E+00
  0.00000000E+00  0.00000000E+00  0.00000000E+00
  0.00000000E+00  0.00000000E+00  0.00000000E+00
  0.00000000E+00  0.00000000E+00  0.00000000E+00
  0.00000000E+00  0.00000000E+00  0.00000000E+00
  0.00000000E+00  0.00000000E+00  0.00000000E+00
  0.00000000E+00  0.00000000E+00  0.00000000E+00
  0.00000000E+00  0.00000000E+00  0.00000000E+00
  0.00000000E+00  0.00000000E+00  0.00000000E+00
  0.00000000E+00  0.00000000E+00  0.00000000E+00
  0.00000000E+00  0.00000000E+00  0.00000000E+00
  0.00000000E+00  0.00000000E+00  0.00000000E+00
