POSCAR                                  
   1.00000000000000     
    10.1116299999999999    0.0000000000000000    0.0000000000000000
    -5.0558149999999999    8.7569284500000002    0.0000000000000000
     0.0000000000000000    0.0000000000000000   21.2664299999999997
   Fe   Ni   O 
    48    16     4
Selective dynamics
Direct
  0.0019470000000013  0.9992000000000019  0.0968289999999996   F   F   F
  0.0005714474078644  0.0027985402429351  0.3810194053508766   T   T   T
  0.4988060000000019  0.9964760000000012  0.0961449999999999   F   F   F
  0.5036684563998293  0.0009485571314940  0.3790406152212924   T   T   T
  0.7431600000000032  0.9964590000000015  0.0944310000000002   F   F   F
  0.7492874277743340  0.9955295274852674  0.3876727782244771   T   T   T
  0.2491360000000000  0.2532259999999980  0.0968099999999978   F   F   F
  0.2493045801974034  0.2471695811197279  0.3849351998842891   T   T   T
  0.0887320000000003  0.1614939999999976  0.1905920000000023   F   F   F
  0.3296259999999975  0.1660979999999981  0.1950629999999975   F   F   F
  0.1619199871897194  0.0754652181647231  0.2908468569030589   T   T   T
  0.5833299999999966  0.1655030000000011  0.1944370000000006   F   F   F
  0.4140715140720701  0.0815316908246899  0.2888197903165874   T   T   T
  0.8265150000000006  0.1665100000000024  0.1932630000000017   F   F   F
  0.6673204249113027  0.0819442228888576  0.2881348520322007   T   T   T
  0.0032080000000008  0.5109089999999981  0.0945129999999992   F   F   F
  0.0000791636299695  0.5033886734779500  0.3737961708735185   T   T   T
  0.2558689999999970  0.5057770000000019  0.0973460000000017   F   F   F
  0.2493976970287051  0.4951762875578680  0.3834356445847362   T   T   T
  0.4996020000000030  0.5030489999999972  0.0975409999999997   F   F   F
  0.4952560107488324  0.4948778960132785  0.3764721908105670   T   T   T
  0.3385990000000021  0.4158370000000033  0.1893930000000026   F   F   F
  0.7567909999999998  0.5080430000000007  0.0963089999999980   F   F   F
  0.7450622639657425  0.4910184356752438  0.3866373188200924   T   T   T
  0.5863360000000029  0.4222940000000008  0.1942359999999965   F   F   F
  0.4161346644536081  0.3356436600756894  0.2864831069800786   T   T   T
  0.8267710000000008  0.4167619999999985  0.1919949999999986   F   F   F
  0.6681904376356158  0.3318713608612640  0.2897047247046061   T   T   T
  0.9918059999999969  0.7470280000000002  0.0957130000000035   F   F   F
  0.0025692921036509  0.7540344364393476  0.3859748078613663   T   T   T
  0.2510460000000023  0.7456389999999971  0.0970360000000028   F   F   F
  0.2513846437560048  0.7541057329018059  0.3856015241282051   T   T   T
  0.0860460000000032  0.6708690000000033  0.1922020000000018   F   F   F
  0.5015369999999990  0.7490570000000005  0.0975290000000015   F   F   F
  0.5064126389222423  0.7520294921099904  0.3847453898410720   T   T   T
  0.3300589999999985  0.6613559999999978  0.1901859999999971   F   F   F
  0.1685296829952279  0.5829074458629009  0.2851963304690130   T   T   T
  0.7477749999999972  0.7486310000000032  0.0940450000000013   F   F   F
  0.7497530253750568  0.7488601896705518  0.3813501542918303   T   T   T
  0.5800819999999973  0.6609630000000024  0.1915270000000007   F   F   F
  0.8321370000000030  0.6619949999999974  0.1930350000000018   F   F   F
  0.6652718966144349  0.5852390224932620  0.2856526104407493   T   T   T
  0.9099847798122838  0.5857312459513651  0.2857746647672457   T   T   T
  0.0860360000000000  0.9163550000000029  0.1937119999999979   F   F   F
  0.3274299999999997  0.9193220000000011  0.1929370000000006   F   F   F
  0.1606885309986978  0.8260245433161018  0.2909591559685083   T   T   T
  0.6627640028507926  0.8353048691607583  0.2884685285919844   T   T   T
  0.9064188922835754  0.8260787189100682  0.2875897295154530   T   T   T
  0.2491649999999979  0.9981310000000008  0.0955980000000025   F   F   F
  0.2515726628655273  0.9979453639616764  0.3884519340792210   T   T   T
  0.0012970000000010  0.2497419999999977  0.0965860000000021   F   F   F
  0.0051390336986827  0.2536274986247875  0.3818251751842041   T   T   T
  0.4993309999999980  0.2516269999999992  0.0953730000000022   F   F   F
  0.5023375204634561  0.2494412369187486  0.3853681278790049   T   T   T
  0.7494420000000019  0.2507129999999975  0.0957310000000007   F   F   F
  0.7513427425252885  0.2504074264639371  0.3848442499006097   T   T   T
  0.9174500601982842  0.0830421264864540  0.2865780573426804   T   T   T
  0.0826080000000005  0.4170799999999986  0.1922530000000009   F   F   F
  0.1681471142304005  0.3319759751272358  0.2865779645970576   T   T   T
  0.9152897155414408  0.3318439880175319  0.2851887861705720   T   T   T
  0.4139179946248674  0.5838525228001785  0.2856883184631869   T   T   T
  0.5819070000000011  0.9152690000000021  0.1924130000000019   F   F   F
  0.4137828502706142  0.8302157047539396  0.2862437894998209   T   T   T
  0.8339989999999986  0.9145710000000022  0.1924040000000034   F   F   F
  0.8296806169563524  0.6650787276105135  0.4371872706035091   T   T   T
  0.3317889686888975  0.1730340057187192  0.4401696798302908   T   T   T
  0.3336572429300375  0.6630954683230996  0.4366676092949220   T   T   T
  0.8383111909307814  0.1629524383464585  0.4373635645136247   T   T   T
 
  0.00000000E+00  0.00000000E+00  0.00000000E+00
  0.00000000E+00  0.00000000E+00  0.00000000E+00
  0.00000000E+00  0.00000000E+00  0.00000000E+00
  0.00000000E+00  0.00000000E+00  0.00000000E+00
  0.00000000E+00  0.00000000E+00  0.00000000E+00
  0.00000000E+00  0.00000000E+00  0.00000000E+00
  0.00000000E+00  0.00000000E+00  0.00000000E+00
  0.00000000E+00  0.00000000E+00  0.00000000E+00
  0.00000000E+00  0.00000000E+00  0.00000000E+00
  0.00000000E+00  0.00000000E+00  0.00000000E+00
  0.00000000E+00  0.00000000E+00  0.00000000E+00
  0.00000000E+00  0.00000000E+00  0.00000000E+00
  0.00000000E+00  0.00000000E+00  0.00000000E+00
  0.00000000E+00  0.00000000E+00  0.00000000E+00
  0.00000000E+00  0.00000000E+00  0.00000000E+00
  0.00000000E+00  0.00000000E+00  0.00000000E+00
  0.00000000E+00  0.00000000E+00  0.00000000E+00
  0.00000000E+00  0.00000000E+00  0.00000000E+00
  0.00000000E+00  0.00000000E+00  0.00000000E+00
  0.00000000E+00  0.00000000E+00  0.00000000E+00
  0.00000000E+00  0.00000000E+00  0.00000000E+00
  0.00000000E+00  0.00000000E+00  0.00000000E+00
  0.00000000E+00  0.00000000E+00  0.00000000E+00
  0.00000000E+00  0.00000000E+00  0.00000000E+00
  0.00000000E+00  0.00000000E+00  0.00000000E+00
  0.00000000E+00  0.00000000E+00  0.00000000E+00
  0.00000000E+00  0.00000000E+00  0.00000000E+00
  0.00000000E+00  0.00000000E+00  0.00000000E+00
  0.00000000E+00  0.00000000E+00  0.00000000E+00
  0.00000000E+00  0.00000000E+00  0.00000000E+00
  0.00000000E+00  0.00000000E+00  0.00000000E+00
  0.00000000E+00  0.00000000E+00  0.00000000E+00
  0.00000000E+00  0.00000000E+00  0.00000000E+00
  0.00000000E+00  0.00000000E+00  0.00000000E+00
  0.00000000E+00  0.00000000E+00  0.00000000E+00
  0.00000000E+00  0.00000000E+00  0.00000000E+00
  0.00000000E+00  0.00000000E+00  0.00000000E+00
  0.00000000E+00  0.00000000E+00  0.00000000E+00
  0.00000000E+00  0.00000000E+00  0.00000000E+00
  0.00000000E+00  0.00000000E+00  0.00000000E+00
  0.00000000E+00  0.00000000E+00  0.00000000E+00
  0.00000000E+00  0.00000000E+00  0.00000000E+00
  0.00000000E+00  0.00000000E+00  0.00000000E+00
  0.00000000E+00  0.00000000E+00  0.00000000E+00
  0.00000000E+00  0.00000000E+00  0.00000000E+00
  0.00000000E+00  0.00000000E+00  0.00000000E+00
  0.00000000E+00  0.00000000E+00  0.00000000E+00
  0.00000000E+00  0.00000000E+00  0.00000000E+00
  0.00000000E+00  0.00000000E+00  0.00000000E+00
  0.00000000E+00  0.00000000E+00  0.00000000E+00
  0.00000000E+00  0.00000000E+00  0.00000000E+00
  0.00000000E+00  0.00000000E+00  0.00000000E+00
  0.00000000E+00  0.00000000E+00  0.00000000E+00
  0.00000000E+00  0.00000000E+00  0.00000000E+00
  0.00000000E+00  0.00000000E+00  0.00000000E+00
  0.00000000E+00  0.00000000E+00  0.00000000E+00
  0.00000000E+00  0.00000000E+00  0.00000000E+00
  0.00000000E+00  0.00000000E+00  0.00000000E+00
  0.00000000E+00  0.00000000E+00  0.00000000E+00
  0.00000000E+00  0.00000000E+00  0.00000000E+00
  0.00000000E+00  0.00000000E+00  0.00000000E+00
  0.00000000E+00  0.00000000E+00  0.00000000E+00
  0.00000000E+00  0.00000000E+00  0.00000000E+00
  0.00000000E+00  0.00000000E+00  0.00000000E+00
  0.00000000E+00  0.00000000E+00  0.00000000E+00
  0.00000000E+00  0.00000000E+00  0.00000000E+00
  0.00000000E+00  0.00000000E+00  0.00000000E+00
  0.00000000E+00  0.00000000E+00  0.00000000E+00
