POSCAR                                  
   1.00000000000000     
    10.0267700000000008    0.0000000000000000    0.0000000000000000
    -5.0133850000000004    8.6834375399999999    0.0000000000000000
     0.0000000000000000    0.0000000000000000   21.1891800000000003
   Ni   Fe   O    H 
    49    15     6     1
Selective dynamics
Direct
  0.9993324326489130  0.0009212941104479  0.2870388841314693   F   F   F
  0.2492186499472098  0.0010523939177034  0.2848901953961374   F   F   F
  0.4983368283494087  0.9992515514618105  0.2874530517004530   F   F   F
  0.7480088121285249  0.9985310309214270  0.2863484028083363   F   F   F
  0.9993597146506445  0.2488233458787974  0.2869995646685766   F   F   F
  0.2517426400912584  0.2528956157883542  0.2873666038569027   F   F   F
  0.0828819999999979  0.1663319999999970  0.0956759999999974   F   F   F
  0.0799557030752567  0.1611671139436552  0.3846161985501766   F   F   F
  0.4993893035263426  0.2502731979775987  0.2864628310349389   F   F   F
  0.3329390000000032  0.1668579999999977  0.0957420000000013   F   F   F
  0.3315898577855805  0.1664504658434538  0.3786685016002735   F   F   F
  0.7499778523938261  0.2520104789635340  0.2881537558044656   F   F   F
  0.5823070000000001  0.1672009999999986  0.0967029999999980   F   F   F
  0.5779509703276418  0.1585386687569610  0.3835336523739699   F   F   F
  0.8340320000000006  0.1667240000000021  0.0964510000000018   F   F   F
  0.8319093379768958  0.1642643625975850  0.3790989912237563   F   F   F
  0.6655810000000031  0.0830550000000017  0.1925829999999991   F   F   F
  0.9163970000000035  0.0820310000000006  0.1920489999999972   F   F   F
  0.0018974579316478  0.5007317241703291  0.2859769620438328   F   F   F
  0.0809220000000010  0.4160970000000006  0.0959479999999999   F   F   F
  0.0803359641959176  0.4171051529237104  0.3836584038868125   F   F   F
  0.1661179999999973  0.3339519999999965  0.1920750000000027   F   F   F
  0.7527118580496008  0.5027600195936159  0.2885909587667399   F   F   F
  0.5835730000000012  0.4161720000000031  0.0959330000000023   F   F   F
  0.5782875118493465  0.4165460599147792  0.3849861585538719   F   F   F
  0.9996624106358922  0.7508531519882311  0.2867670102735431   F   F   F
  0.2493171757318180  0.7498040654177842  0.2849243887605439   F   F   F
  0.0837580000000031  0.6681039999999996  0.0947969999999998   F   F   F
  0.0844236433510090  0.6632614834140185  0.3808286397099607   F   F   F
  0.5011862225008628  0.7494172961533252  0.2866952898088613   F   F   F
  0.3329740000000001  0.6672769999999986  0.0943880000000021   F   F   F
  0.3319877753801208  0.6653417418003400  0.3783862339437576   F   F   F
  0.7528910597560881  0.7486393707204613  0.2879907040766696   F   F   F
  0.5829809999999966  0.6666820000000016  0.0945090000000022   F   F   F
  0.5783123388849845  0.6614959230272888  0.3848188679449080   F   F   F
  0.4166099999999986  0.5820020000000028  0.1908170000000027   F   F   F
  0.8339590000000001  0.6677060000000026  0.0949790000000021   F   F   F
  0.8358657996063172  0.6679273086865578  0.3892632486845073   F   F   F
  0.9170829999999981  0.5832389999999990  0.1907939999999968   F   F   F
  0.0829170000000019  0.9168579999999977  0.0951859999999982   F   F   F
  0.0834058087893226  0.9210294936880885  0.3812608470917098   F   F   F
  0.3342060000000018  0.9170540000000003  0.0953820000000007   F   F   F
  0.3362962534061822  0.9179634754285715  0.3828454189605068   F   F   F
  0.1667089999999973  0.8352420000000009  0.1913649999999976   F   F   F
  0.4170349999999985  0.8321490000000011  0.1920590000000004   F   F   F
  0.8323310000000035  0.9171499999999995  0.0963369999999983   F   F   F
  0.8380629844230327  0.9204811166414544  0.3833927419520151   F   F   F
  0.6662389999999974  0.8333700000000022  0.1923409999999990   F   F   F
  0.9170590000000018  0.8331950000000035  0.1921620000000033   F   F   F
  0.1616849999999985  0.0821150000000017  0.1913059999999973   F   F   F
  0.4160749999999993  0.0780710000000013  0.1917729999999978   F   F   F
  0.2493554226939736  0.4986189762198450  0.2875693212457477   F   F   F
  0.5067198849971106  0.5033191225509341  0.2893911514837555   F   F   F
  0.3313410000000019  0.4171430000000029  0.0957760000000007   F   F   F
  0.3367752271246047  0.4167757725933185  0.3871055479050511   F   F   F
  0.4163840000000008  0.3314430000000002  0.1925219999999968   F   F   F
  0.8335480000000004  0.4183900000000023  0.0944879999999984   F   F   F
  0.8366212595439180  0.4151659900761260  0.3836779265264525   F   F   F
  0.6673240000000007  0.3324059999999989  0.1943550000000016   F   F   F
  0.9144640000000024  0.3269549999999981  0.1939649999999986   F   F   F
  0.1691420000000008  0.5883340000000032  0.1894780000000011   F   F   F
  0.6696159999999978  0.5892890000000008  0.1898600000000030   F   F   F
  0.5831039999999987  0.9165149999999969  0.0958350000000010   F   F   F
  0.5800132726442229  0.9177712412644112  0.3824070666626938   F   F   F
  0.6679712051512254  0.3283684926370682  0.4355437289863175   F   F   F
  0.1644878284523799  0.8322441319286114  0.4353132666715069   F   F   F
  0.1634712347345513  0.3315938710107460  0.4372814192154095   F   F   F
  0.6660913827326738  0.8391360665543175  0.4353567705666563   F   F   F
  0.8226757080630591  0.6557186816408489  0.4759280397283021   T   T   T
  0.9425849426066080  0.7292309501246166  0.5187968637521436   T   T   T
  0.0398025836052867  0.7772135253149557  0.4918297049771354   T   T   T
 
  0.00000000E+00  0.00000000E+00  0.00000000E+00
  0.00000000E+00  0.00000000E+00  0.00000000E+00
  0.00000000E+00  0.00000000E+00  0.00000000E+00
  0.00000000E+00  0.00000000E+00  0.00000000E+00
  0.00000000E+00  0.00000000E+00  0.00000000E+00
  0.00000000E+00  0.00000000E+00  0.00000000E+00
  0.00000000E+00  0.00000000E+00  0.00000000E+00
  0.00000000E+00  0.00000000E+00  0.00000000E+00
  0.00000000E+00  0.00000000E+00  0.00000000E+00
  0.00000000E+00  0.00000000E+00  0.00000000E+00
  0.00000000E+00  0.00000000E+00  0.00000000E+00
  0.00000000E+00  0.00000000E+00  0.00000000E+00
  0.00000000E+00  0.00000000E+00  0.00000000E+00
  0.00000000E+00  0.00000000E+00  0.00000000E+00
  0.00000000E+00  0.00000000E+00  0.00000000E+00
  0.00000000E+00  0.00000000E+00  0.00000000E+00
  0.00000000E+00  0.00000000E+00  0.00000000E+00
  0.00000000E+00  0.00000000E+00  0.00000000E+00
  0.00000000E+00  0.00000000E+00  0.00000000E+00
  0.00000000E+00  0.00000000E+00  0.00000000E+00
  0.00000000E+00  0.00000000E+00  0.00000000E+00
  0.00000000E+00  0.00000000E+00  0.00000000E+00
  0.00000000E+00  0.00000000E+00  0.00000000E+00
  0.00000000E+00  0.00000000E+00  0.00000000E+00
  0.00000000E+00  0.00000000E+00  0.00000000E+00
  0.00000000E+00  0.00000000E+00  0.00000000E+00
  0.00000000E+00  0.00000000E+00  0.00000000E+00
  0.00000000E+00  0.00000000E+00  0.00000000E+00
  0.00000000E+00  0.00000000E+00  0.00000000E+00
  0.00000000E+00  0.00000000E+00  0.00000000E+00
  0.00000000E+00  0.00000000E+00  0.00000000E+00
  0.00000000E+00  0.00000000E+00  0.00000000E+00
  0.00000000E+00  0.00000000E+00  0.00000000E+00
  0.00000000E+00  0.00000000E+00  0.00000000E+00
  0.00000000E+00  0.00000000E+00  0.00000000E+00
  0.00000000E+00  0.00000000E+00  0.00000000E+00
  0.00000000E+00  0.00000000E+00  0.00000000E+00
  0.00000000E+00  0.00000000E+00  0.00000000E+00
  0.00000000E+00  0.00000000E+00  0.00000000E+00
  0.00000000E+00  0.00000000E+00  0.00000000E+00
  0.00000000E+00  0.00000000E+00  0.00000000E+00
  0.00000000E+00  0.00000000E+00  0.00000000E+00
  0.00000000E+00  0.00000000E+00  0.00000000E+00
  0.00000000E+00  0.00000000E+00  0.00000000E+00
  0.00000000E+00  0.00000000E+00  0.00000000E+00
  0.00000000E+00  0.00000000E+00  0.00000000E+00
  0.00000000E+00  0.00000000E+00  0.00000000E+00
  0.00000000E+00  0.00000000E+00  0.00000000E+00
  0.00000000E+00  0.00000000E+00  0.00000000E+00
  0.00000000E+00  0.00000000E+00  0.00000000E+00
  0.00000000E+00  0.00000000E+00  0.00000000E+00
  0.00000000E+00  0.00000000E+00  0.00000000E+00
  0.00000000E+00  0.00000000E+00  0.00000000E+00
  0.00000000E+00  0.00000000E+00  0.00000000E+00
  0.00000000E+00  0.00000000E+00  0.00000000E+00
  0.00000000E+00  0.00000000E+00  0.00000000E+00
  0.00000000E+00  0.00000000E+00  0.00000000E+00
  0.00000000E+00  0.00000000E+00  0.00000000E+00
  0.00000000E+00  0.00000000E+00  0.00000000E+00
  0.00000000E+00  0.00000000E+00  0.00000000E+00
  0.00000000E+00  0.00000000E+00  0.00000000E+00
  0.00000000E+00  0.00000000E+00  0.00000000E+00
  0.00000000E+00  0.00000000E+00  0.00000000E+00
  0.00000000E+00  0.00000000E+00  0.00000000E+00
  0.00000000E+00  0.00000000E+00  0.00000000E+00
  0.00000000E+00  0.00000000E+00  0.00000000E+00
  0.00000000E+00  0.00000000E+00  0.00000000E+00
  0.00000000E+00  0.00000000E+00  0.00000000E+00
  0.00000000E+00  0.00000000E+00  0.00000000E+00
  0.00000000E+00  0.00000000E+00  0.00000000E+00
  0.00000000E+00  0.00000000E+00  0.00000000E+00
