POSCAR                                  
   1.00000000000000     
    10.1116299999999999    0.0000000000000000    0.0000000000000000
    -5.0558149999999999    8.7569284500000002    0.0000000000000000
     0.0000000000000000    0.0000000000000000   21.2664299999999997
   Fe   Ni   O    H 
    48    16     5     1
Selective dynamics
Direct
  0.0019470000000013  0.9992000000000019  0.0968289999999996   F   F   F
  0.0022731084520444  0.9970953817378572  0.3812921264201705   T   T   T
  0.4988060000000019  0.9964760000000012  0.0961449999999999   F   F   F
  0.5041438388447119  0.9925251434614921  0.3799928404004049   T   T   T
  0.7431600000000032  0.9964590000000015  0.0944310000000002   F   F   F
  0.7554676339303441  0.9953160479906913  0.3856008629315397   T   T   T
  0.2491360000000000  0.2532259999999980  0.0968099999999978   F   F   F
  0.2517296564586147  0.2448228725493493  0.3823233042066150   T   T   T
  0.0887320000000003  0.1614939999999976  0.1905920000000023   F   F   F
  0.3296259999999975  0.1660979999999981  0.1950629999999975   F   F   F
  0.1649456948960193  0.0792840617926274  0.2888613912992071   T   T   T
  0.5833299999999966  0.1655030000000011  0.1944370000000006   F   F   F
  0.4152440160157340  0.0824701770406975  0.2920649539895877   T   T   T
  0.8265150000000006  0.1665100000000024  0.1932630000000017   F   F   F
  0.6685497429458351  0.0816161792302523  0.2898935575103252   T   T   T
  0.0032080000000008  0.5109089999999981  0.0945129999999992   F   F   F
  0.0052612119790965  0.5006064945815467  0.3769360145707950   T   T   T
  0.2558689999999970  0.5057770000000019  0.0973460000000017   F   F   F
  0.2500462720795085  0.4892862611414373  0.3852146448044067   T   T   T
  0.4996020000000030  0.5030489999999972  0.0975409999999997   F   F   F
  0.5040496614479437  0.4964075312505614  0.3756429231550698   T   T   T
  0.3385990000000021  0.4158370000000033  0.1893930000000026   F   F   F
  0.7567909999999998  0.5080430000000007  0.0963089999999980   F   F   F
  0.7527096897836074  0.4945207532869347  0.3940701479793347   T   T   T
  0.5863360000000029  0.4222940000000008  0.1942359999999965   F   F   F
  0.4164169115287990  0.3347088143485877  0.2847368506302956   T   T   T
  0.8267710000000008  0.4167619999999985  0.1919949999999986   F   F   F
  0.6697477720997895  0.3340281726139906  0.2939428107218731   T   T   T
  0.9918059999999969  0.7470280000000002  0.0957130000000035   F   F   F
  0.0090743639760262  0.7535792115643289  0.3883487515092483   T   T   T
  0.2510460000000023  0.7456389999999971  0.0970360000000028   F   F   F
  0.2533334090985164  0.7487853465934506  0.3887720805347001   T   T   T
  0.0860460000000032  0.6708690000000033  0.1922020000000018   F   F   F
  0.5015369999999990  0.7490570000000005  0.0975290000000015   F   F   F
  0.5057264045983132  0.7465342867885738  0.3853942582421297   T   T   T
  0.3300589999999985  0.6613559999999978  0.1901859999999971   F   F   F
  0.1701355310177135  0.5784068029479883  0.2858392101011376   T   T   T
  0.7477749999999972  0.7486310000000032  0.0940450000000013   F   F   F
  0.7518599682935303  0.7518556623947177  0.3875715169675900   T   T   T
  0.5800819999999973  0.6609630000000024  0.1915270000000007   F   F   F
  0.8321370000000030  0.6619949999999974  0.1930350000000018   F   F   F
  0.6727839330359302  0.5843745623891579  0.2881730257302308   T   T   T
  0.9180802499095506  0.5826362104042744  0.2891943582425895   T   T   T
  0.0860360000000000  0.9163550000000029  0.1937119999999979   F   F   F
  0.3274299999999997  0.9193220000000011  0.1929370000000006   F   F   F
  0.1669587433367639  0.8288080354528944  0.2919615680737593   T   T   T
  0.6651145766473974  0.8304993816305526  0.2882275759730462   T   T   T
  0.9182891163339875  0.8336744980533481  0.2863731698519345   T   T   T
  0.2491649999999979  0.9981310000000008  0.0955980000000025   F   F   F
  0.2538384765042849  0.9942638349266417  0.3887019496759407   T   T   T
  0.0012970000000010  0.2497419999999977  0.0965860000000021   F   F   F
  0.0106581024026653  0.2514476348211687  0.3814474252052520   T   T   T
  0.4993309999999980  0.2516269999999992  0.0953730000000022   F   F   F
  0.4994423543927766  0.2450933231390451  0.3896243069044445   T   T   T
  0.7494420000000019  0.2507129999999975  0.0957310000000007   F   F   F
  0.7565646176492891  0.2447142628059993  0.3889511171419073   T   T   T
  0.9205530188000921  0.0842023362208479  0.2860987010581937   T   T   T
  0.0826080000000005  0.4170799999999986  0.1922530000000009   F   F   F
  0.1697214848085196  0.3323082738334762  0.2862609199180568   T   T   T
  0.9148730871623911  0.3293851328748545  0.2867054106963209   T   T   T
  0.4159307927556810  0.5807509930104260  0.2861076736972521   T   T   T
  0.5819070000000011  0.9152690000000021  0.1924130000000019   F   F   F
  0.4157563290607982  0.8275695204583329  0.2863641992959103   T   T   T
  0.8339989999999986  0.9145710000000022  0.1924040000000034   F   F   F
  0.8418945766648278  0.6774819514171284  0.4414113190672992   T   T   T
  0.3157501000056442  0.1633200458596562  0.4412338902975392   T   T   T
  0.3368316777046800  0.6579298345834061  0.4391305493293487   T   T   T
  0.8507424324342452  0.1532253189400947  0.4391983830068824   T   T   T
  0.6717680819916367  0.3269139778957211  0.4546693898345850   T   T   T
  0.6751086099449779  0.3265038331907846  0.5003772546977032   T   T   T
 
  0.00000000E+00  0.00000000E+00  0.00000000E+00
  0.00000000E+00  0.00000000E+00  0.00000000E+00
  0.00000000E+00  0.00000000E+00  0.00000000E+00
  0.00000000E+00  0.00000000E+00  0.00000000E+00
  0.00000000E+00  0.00000000E+00  0.00000000E+00
  0.00000000E+00  0.00000000E+00  0.00000000E+00
  0.00000000E+00  0.00000000E+00  0.00000000E+00
  0.00000000E+00  0.00000000E+00  0.00000000E+00
  0.00000000E+00  0.00000000E+00  0.00000000E+00
  0.00000000E+00  0.00000000E+00  0.00000000E+00
  0.00000000E+00  0.00000000E+00  0.00000000E+00
  0.00000000E+00  0.00000000E+00  0.00000000E+00
  0.00000000E+00  0.00000000E+00  0.00000000E+00
  0.00000000E+00  0.00000000E+00  0.00000000E+00
  0.00000000E+00  0.00000000E+00  0.00000000E+00
  0.00000000E+00  0.00000000E+00  0.00000000E+00
  0.00000000E+00  0.00000000E+00  0.00000000E+00
  0.00000000E+00  0.00000000E+00  0.00000000E+00
  0.00000000E+00  0.00000000E+00  0.00000000E+00
  0.00000000E+00  0.00000000E+00  0.00000000E+00
  0.00000000E+00  0.00000000E+00  0.00000000E+00
  0.00000000E+00  0.00000000E+00  0.00000000E+00
  0.00000000E+00  0.00000000E+00  0.00000000E+00
  0.00000000E+00  0.00000000E+00  0.00000000E+00
  0.00000000E+00  0.00000000E+00  0.00000000E+00
  0.00000000E+00  0.00000000E+00  0.00000000E+00
  0.00000000E+00  0.00000000E+00  0.00000000E+00
  0.00000000E+00  0.00000000E+00  0.00000000E+00
  0.00000000E+00  0.00000000E+00  0.00000000E+00
  0.00000000E+00  0.00000000E+00  0.00000000E+00
  0.00000000E+00  0.00000000E+00  0.00000000E+00
  0.00000000E+00  0.00000000E+00  0.00000000E+00
  0.00000000E+00  0.00000000E+00  0.00000000E+00
  0.00000000E+00  0.00000000E+00  0.00000000E+00
  0.00000000E+00  0.00000000E+00  0.00000000E+00
  0.00000000E+00  0.00000000E+00  0.00000000E+00
  0.00000000E+00  0.00000000E+00  0.00000000E+00
  0.00000000E+00  0.00000000E+00  0.00000000E+00
  0.00000000E+00  0.00000000E+00  0.00000000E+00
  0.00000000E+00  0.00000000E+00  0.00000000E+00
  0.00000000E+00  0.00000000E+00  0.00000000E+00
  0.00000000E+00  0.00000000E+00  0.00000000E+00
  0.00000000E+00  0.00000000E+00  0.00000000E+00
  0.00000000E+00  0.00000000E+00  0.00000000E+00
  0.00000000E+00  0.00000000E+00  0.00000000E+00
  0.00000000E+00  0.00000000E+00  0.00000000E+00
  0.00000000E+00  0.00000000E+00  0.00000000E+00
  0.00000000E+00  0.00000000E+00  0.00000000E+00
  0.00000000E+00  0.00000000E+00  0.00000000E+00
  0.00000000E+00  0.00000000E+00  0.00000000E+00
  0.00000000E+00  0.00000000E+00  0.00000000E+00
  0.00000000E+00  0.00000000E+00  0.00000000E+00
  0.00000000E+00  0.00000000E+00  0.00000000E+00
  0.00000000E+00  0.00000000E+00  0.00000000E+00
  0.00000000E+00  0.00000000E+00  0.00000000E+00
  0.00000000E+00  0.00000000E+00  0.00000000E+00
  0.00000000E+00  0.00000000E+00  0.00000000E+00
  0.00000000E+00  0.00000000E+00  0.00000000E+00
  0.00000000E+00  0.00000000E+00  0.00000000E+00
  0.00000000E+00  0.00000000E+00  0.00000000E+00
  0.00000000E+00  0.00000000E+00  0.00000000E+00
  0.00000000E+00  0.00000000E+00  0.00000000E+00
  0.00000000E+00  0.00000000E+00  0.00000000E+00
  0.00000000E+00  0.00000000E+00  0.00000000E+00
  0.00000000E+00  0.00000000E+00  0.00000000E+00
  0.00000000E+00  0.00000000E+00  0.00000000E+00
  0.00000000E+00  0.00000000E+00  0.00000000E+00
  0.00000000E+00  0.00000000E+00  0.00000000E+00
  0.00000000E+00  0.00000000E+00  0.00000000E+00
  0.00000000E+00  0.00000000E+00  0.00000000E+00
