POSCAR                                  
   1.00000000000000     
    10.1116299999999999    0.0000000000000000    0.0000000000000000
    -5.0558149999999999    8.7569284500000002    0.0000000000000000
     0.0000000000000000    0.0000000000000000   21.2664299999999997
   Fe   Ni   O    H 
    48    16     6     1
Selective dynamics
Direct
  0.0019470000000013  0.9992000000000019  0.0968289999999996   F   F   F
  0.9961449485581539  0.9953252960819015  0.3802991582665030   T   T   T
  0.4988060000000019  0.9964760000000012  0.0961449999999999   F   F   F
  0.5004991038041382  0.9910916227722666  0.3782311444806652   T   T   T
  0.7431600000000032  0.9964590000000015  0.0944310000000002   F   F   F
  0.7530137811751771  0.9982468453122877  0.3863547145300501   T   T   T
  0.2491360000000000  0.2532259999999980  0.0968099999999978   F   F   F
  0.2449171979626783  0.2409220501513119  0.3818623177068829   T   T   T
  0.0887320000000003  0.1614939999999976  0.1905920000000023   F   F   F
  0.3296259999999975  0.1660979999999981  0.1950629999999975   F   F   F
  0.1646875863167949  0.0779805724381433  0.2874975589277398   T   T   T
  0.5833299999999966  0.1655030000000011  0.1944370000000006   F   F   F
  0.4129233095966143  0.0813154807040419  0.2900561634372352   T   T   T
  0.8265150000000006  0.1665100000000024  0.1932630000000017   F   F   F
  0.6663628570767557  0.0808232741745414  0.2888581042851897   T   T   T
  0.0032080000000008  0.5109089999999981  0.0945129999999992   F   F   F
  0.0038715635144726  0.5020650127501654  0.3751843520556051   T   T   T
  0.2558689999999970  0.5057770000000019  0.0973460000000017   F   F   F
  0.2467885419428342  0.4888963236626438  0.3847612966626386   T   T   T
  0.4996020000000030  0.5030489999999972  0.0975409999999997   F   F   F
  0.4982750359611146  0.4935298500451779  0.3751545535881604   T   T   T
  0.3385990000000021  0.4158370000000033  0.1893930000000026   F   F   F
  0.7567909999999998  0.5080430000000007  0.0963089999999980   F   F   F
  0.7486378253218646  0.4937528900723152  0.3897499881780462   T   T   T
  0.5863360000000029  0.4222940000000008  0.1942359999999965   F   F   F
  0.4133544928185628  0.3307791295849967  0.2857553935842176   T   T   T
  0.8267710000000008  0.4167619999999985  0.1919949999999986   F   F   F
  0.6692845516106871  0.3345798692595423  0.2915121076024150   T   T   T
  0.9918059999999969  0.7470280000000002  0.0957130000000035   F   F   F
  0.0034958188963543  0.7502331555618085  0.3837358403174349   T   T   T
  0.2510460000000023  0.7456389999999971  0.0970360000000028   F   F   F
  0.2490281495492610  0.7470871734143216  0.3872769243347065   T   T   T
  0.0860460000000032  0.6708690000000033  0.1922020000000018   F   F   F
  0.5015369999999990  0.7490570000000005  0.0975290000000015   F   F   F
  0.5026975503064790  0.7455776115125872  0.3846171253440005   T   T   T
  0.3300589999999985  0.6613559999999978  0.1901859999999971   F   F   F
  0.1678682309486348  0.5807914019514868  0.2856667566468971   T   T   T
  0.7477749999999972  0.7486310000000032  0.0940450000000013   F   F   F
  0.7473085071667214  0.7509785814398526  0.3865745763556845   T   T   T
  0.5800819999999973  0.6609630000000024  0.1915270000000007   F   F   F
  0.8321370000000030  0.6619949999999974  0.1930350000000018   F   F   F
  0.6731716109507815  0.5835722901278970  0.2867320384132981   T   T   T
  0.9187618584538626  0.5865552216898422  0.2813510504379408   T   T   T
  0.0860360000000000  0.9163550000000029  0.1937119999999979   F   F   F
  0.3274299999999997  0.9193220000000011  0.1929370000000006   F   F   F
  0.1639599309299555  0.8270105762727979  0.2898148012732591   T   T   T
  0.6653456931517354  0.8307536192423797  0.2886411931893633   T   T   T
  0.9161254124531553  0.8298044730954643  0.2852934665398337   T   T   T
  0.2491649999999979  0.9981310000000008  0.0955980000000025   F   F   F
  0.2484525621417717  0.9906623112301389  0.3864350169813804   T   T   T
  0.0012970000000010  0.2497419999999977  0.0965860000000021   F   F   F
  0.0068160943009445  0.2514690804696400  0.3814915033537574   T   T   T
  0.4993309999999980  0.2516269999999992  0.0953730000000022   F   F   F
  0.4948170553707598  0.2417235936384543  0.3890566379535372   T   T   T
  0.7494420000000019  0.2507129999999975  0.0957310000000007   F   F   F
  0.7541141609420592  0.2477253832525790  0.3845618001852387   T   T   T
  0.9188987103606294  0.0843085268025732  0.2860880500599734   T   T   T
  0.0826080000000005  0.4170799999999986  0.1922530000000009   F   F   F
  0.1672023539138650  0.3323318244658395  0.2866740146238556   T   T   T
  0.9133681485166107  0.3312178354670010  0.2856283422483585   T   T   T
  0.4143995991940983  0.5808510965655387  0.2855907348619908   T   T   T
  0.5819070000000011  0.9152690000000021  0.1924130000000019   F   F   F
  0.4132292293884419  0.8272653073927430  0.2858643156323524   T   T   T
  0.8339989999999986  0.9145710000000022  0.1924040000000034   F   F   F
  0.8382915170528662  0.6733266594596969  0.4377699809717299   T   T   T
  0.3133079996873676  0.1605331772390741  0.4392192284815408   T   T   T
  0.3338306109321465  0.6574300254813892  0.4381330251784092   T   T   T
  0.8450491873202921  0.1598779567400896  0.4397639736005132   T   T   T
  0.6756872715176669  0.3262249755238713  0.4490644508138857   T   T   T
  0.7207356820684154  0.3185262677549403  0.5176506133599972   T   T   T
  0.7700605306586539  0.2565565283605125  0.5098154692645309   T   T   T
 
  0.00000000E+00  0.00000000E+00  0.00000000E+00
  0.00000000E+00  0.00000000E+00  0.00000000E+00
  0.00000000E+00  0.00000000E+00  0.00000000E+00
  0.00000000E+00  0.00000000E+00  0.00000000E+00
  0.00000000E+00  0.00000000E+00  0.00000000E+00
  0.00000000E+00  0.00000000E+00  0.00000000E+00
  0.00000000E+00  0.00000000E+00  0.00000000E+00
  0.00000000E+00  0.00000000E+00  0.00000000E+00
  0.00000000E+00  0.00000000E+00  0.00000000E+00
  0.00000000E+00  0.00000000E+00  0.00000000E+00
  0.00000000E+00  0.00000000E+00  0.00000000E+00
  0.00000000E+00  0.00000000E+00  0.00000000E+00
  0.00000000E+00  0.00000000E+00  0.00000000E+00
  0.00000000E+00  0.00000000E+00  0.00000000E+00
  0.00000000E+00  0.00000000E+00  0.00000000E+00
  0.00000000E+00  0.00000000E+00  0.00000000E+00
  0.00000000E+00  0.00000000E+00  0.00000000E+00
  0.00000000E+00  0.00000000E+00  0.00000000E+00
  0.00000000E+00  0.00000000E+00  0.00000000E+00
  0.00000000E+00  0.00000000E+00  0.00000000E+00
  0.00000000E+00  0.00000000E+00  0.00000000E+00
  0.00000000E+00  0.00000000E+00  0.00000000E+00
  0.00000000E+00  0.00000000E+00  0.00000000E+00
  0.00000000E+00  0.00000000E+00  0.00000000E+00
  0.00000000E+00  0.00000000E+00  0.00000000E+00
  0.00000000E+00  0.00000000E+00  0.00000000E+00
  0.00000000E+00  0.00000000E+00  0.00000000E+00
  0.00000000E+00  0.00000000E+00  0.00000000E+00
  0.00000000E+00  0.00000000E+00  0.00000000E+00
  0.00000000E+00  0.00000000E+00  0.00000000E+00
  0.00000000E+00  0.00000000E+00  0.00000000E+00
  0.00000000E+00  0.00000000E+00  0.00000000E+00
  0.00000000E+00  0.00000000E+00  0.00000000E+00
  0.00000000E+00  0.00000000E+00  0.00000000E+00
  0.00000000E+00  0.00000000E+00  0.00000000E+00
  0.00000000E+00  0.00000000E+00  0.00000000E+00
  0.00000000E+00  0.00000000E+00  0.00000000E+00
  0.00000000E+00  0.00000000E+00  0.00000000E+00
  0.00000000E+00  0.00000000E+00  0.00000000E+00
  0.00000000E+00  0.00000000E+00  0.00000000E+00
  0.00000000E+00  0.00000000E+00  0.00000000E+00
  0.00000000E+00  0.00000000E+00  0.00000000E+00
  0.00000000E+00  0.00000000E+00  0.00000000E+00
  0.00000000E+00  0.00000000E+00  0.00000000E+00
  0.00000000E+00  0.00000000E+00  0.00000000E+00
  0.00000000E+00  0.00000000E+00  0.00000000E+00
  0.00000000E+00  0.00000000E+00  0.00000000E+00
  0.00000000E+00  0.00000000E+00  0.00000000E+00
  0.00000000E+00  0.00000000E+00  0.00000000E+00
  0.00000000E+00  0.00000000E+00  0.00000000E+00
  0.00000000E+00  0.00000000E+00  0.00000000E+00
  0.00000000E+00  0.00000000E+00  0.00000000E+00
  0.00000000E+00  0.00000000E+00  0.00000000E+00
  0.00000000E+00  0.00000000E+00  0.00000000E+00
  0.00000000E+00  0.00000000E+00  0.00000000E+00
  0.00000000E+00  0.00000000E+00  0.00000000E+00
  0.00000000E+00  0.00000000E+00  0.00000000E+00
  0.00000000E+00  0.00000000E+00  0.00000000E+00
  0.00000000E+00  0.00000000E+00  0.00000000E+00
  0.00000000E+00  0.00000000E+00  0.00000000E+00
  0.00000000E+00  0.00000000E+00  0.00000000E+00
  0.00000000E+00  0.00000000E+00  0.00000000E+00
  0.00000000E+00  0.00000000E+00  0.00000000E+00
  0.00000000E+00  0.00000000E+00  0.00000000E+00
  0.00000000E+00  0.00000000E+00  0.00000000E+00
  0.00000000E+00  0.00000000E+00  0.00000000E+00
  0.00000000E+00  0.00000000E+00  0.00000000E+00
  0.00000000E+00  0.00000000E+00  0.00000000E+00
  0.00000000E+00  0.00000000E+00  0.00000000E+00
  0.00000000E+00  0.00000000E+00  0.00000000E+00
  0.00000000E+00  0.00000000E+00  0.00000000E+00
