Fe-Iron-gamma-primitive                 
   1.00000000000000     
     2.5392000674999999    0.0000000000000000    0.0000000000000000
     1.2696000338000000    2.1990117638000002    0.0000000000000000
     1.2696000338000000    0.7330039213000000    2.0732481734000001
   Fe
     1
Direct
  0.0000000000000000  0.0000000000000000  0.0000000000000000
 
  0.00000000E+00  0.00000000E+00  0.00000000E+00
