Fe-Iron-gamma-primitive
1.0
        2.5392000675         0.0000000000         0.0000000000
        1.2696000338         2.1990117638         0.0000000000
        1.2696000338         0.7330039213         2.0732481734
   Fe
    1
Direct
     0.000000000         0.000000000         0.000000000
