POSCAR                                  
   3.54500000000000     
     2.0000000000000000   -2.0000000000000000    0.0000000000000000
     0.0000000000000000    2.0000000000000000   -2.0000000000000000
     1.0000000000000000    1.0000000000000000    1.0000000000000000
   Ni   Fe
    36    12
Direct
  0.0005291500840841  0.0005301184836668  0.0017207298973290
  0.2500133873246995  0.0002871267203801  0.9987602117573644
  0.4994871409906096  0.9990798725843675  0.0012639201987881
  0.7493018447357755  0.9991931333930069  0.0015460482146352
  0.9986404403215730  0.2485066111123970  0.0011889524779392
  0.2501255462559655  0.2502163526807664  0.9999521979356985
  0.0828823617868224  0.1663320682496092  0.3344900693726203
  0.5006422573811804  0.2489125597977591  0.0014959515284758
  0.3329387924480187  0.1668575491830850  0.3347169494794286
  0.7505253914559020  0.2500615439790366  0.0043486736831113
  0.5823065000480128  0.1672013601867732  0.3380328247132951
  0.8340317266527180  0.1667236128571048  0.3371619171955444
  0.6655813458017406  0.0830552763107946  0.6689066785837383
  0.9163969144329229  0.0820314793085331  0.6670669181301037
  0.0018337470186864  0.5004750601285721  0.9963907190477670
  0.0809222814986867  0.4160973717630938  0.3354262187583288
  0.1661183101512549  0.3339520780648755  0.6671570052481854
  0.7517024963890222  0.5018689645364631  0.9971402682214077
  0.5835730086157653  0.4161722897049387  0.3353768391880436
  0.0010906292544419  0.7511524937780933  0.9974070141371385
  0.2490259733339713  0.7488569626362818  0.9967466256906121
  0.0837578488897108  0.6681035373164264  0.3314558332008488
  0.4997249160331307  0.7491726158063443  0.9972619191574452
  0.3329740431240751  0.6672767945769280  0.3300432599895800
  0.7512830351595383  0.7509363520481998  0.9999962445211494
  0.5829809164967585  0.6666819405404638  0.3304627599140133
  0.4166100821862813  0.5820017050186692  0.6628133911323104
  0.8339590350335300  0.6677062034872989  0.3320828608908926
  0.9170826023150482  0.5832387830087526  0.6627359667257409
  0.0829168690590691  0.9168580151493657  0.3327975348411627
  0.3342055357456957  0.9170537189708199  0.3334728730597547
  0.1667085498790755  0.8352421463274737  0.6647070407438207
  0.4170353080321405  0.8321485798853914  0.6670988233662314
  0.8323310141571696  0.9171500594847544  0.3367676067897136
  0.6662390889131302  0.8333695921459636  0.6680727319047364
  0.9170592037924408  0.8331948147724901  0.6674554849143988
  0.1616853918231413  0.0821153106115347  0.6645021308439425
  0.4160748277307178  0.0780706693558741  0.6661124191481065
  0.2482987898728339  0.4990458768735238  0.9989657527178721
  0.5064805391598810  0.5025948369764706  0.0015347901970060
  0.3313414559062693  0.4171432774712827  0.3348343735533987
  0.4163836319838126  0.3314434076379484  0.6686982662713561
  0.8335480755188343  0.4183896795677242  0.3303875407017571
  0.6673240646857366  0.3324059500089049  0.6750235137075862
  0.9144643611337528  0.3269549175981368  0.6736783184410484
  0.1691415321418077  0.5883339137549370  0.6581926859184506
  0.6696159178126848  0.5892885236948260  0.6595123576534903
  0.5831041174318656  0.9165148924498965  0.3350367862346246
 
  0.00000000E+00  0.00000000E+00  0.00000000E+00
  0.00000000E+00  0.00000000E+00  0.00000000E+00
  0.00000000E+00  0.00000000E+00  0.00000000E+00
  0.00000000E+00  0.00000000E+00  0.00000000E+00
  0.00000000E+00  0.00000000E+00  0.00000000E+00
  0.00000000E+00  0.00000000E+00  0.00000000E+00
  0.00000000E+00  0.00000000E+00  0.00000000E+00
  0.00000000E+00  0.00000000E+00  0.00000000E+00
  0.00000000E+00  0.00000000E+00  0.00000000E+00
  0.00000000E+00  0.00000000E+00  0.00000000E+00
  0.00000000E+00  0.00000000E+00  0.00000000E+00
  0.00000000E+00  0.00000000E+00  0.00000000E+00
  0.00000000E+00  0.00000000E+00  0.00000000E+00
  0.00000000E+00  0.00000000E+00  0.00000000E+00
  0.00000000E+00  0.00000000E+00  0.00000000E+00
  0.00000000E+00  0.00000000E+00  0.00000000E+00
  0.00000000E+00  0.00000000E+00  0.00000000E+00
  0.00000000E+00  0.00000000E+00  0.00000000E+00
  0.00000000E+00  0.00000000E+00  0.00000000E+00
  0.00000000E+00  0.00000000E+00  0.00000000E+00
  0.00000000E+00  0.00000000E+00  0.00000000E+00
  0.00000000E+00  0.00000000E+00  0.00000000E+00
  0.00000000E+00  0.00000000E+00  0.00000000E+00
  0.00000000E+00  0.00000000E+00  0.00000000E+00
  0.00000000E+00  0.00000000E+00  0.00000000E+00
  0.00000000E+00  0.00000000E+00  0.00000000E+00
  0.00000000E+00  0.00000000E+00  0.00000000E+00
  0.00000000E+00  0.00000000E+00  0.00000000E+00
  0.00000000E+00  0.00000000E+00  0.00000000E+00
  0.00000000E+00  0.00000000E+00  0.00000000E+00
  0.00000000E+00  0.00000000E+00  0.00000000E+00
  0.00000000E+00  0.00000000E+00  0.00000000E+00
  0.00000000E+00  0.00000000E+00  0.00000000E+00
  0.00000000E+00  0.00000000E+00  0.00000000E+00
  0.00000000E+00  0.00000000E+00  0.00000000E+00
  0.00000000E+00  0.00000000E+00  0.00000000E+00
  0.00000000E+00  0.00000000E+00  0.00000000E+00
  0.00000000E+00  0.00000000E+00  0.00000000E+00
  0.00000000E+00  0.00000000E+00  0.00000000E+00
  0.00000000E+00  0.00000000E+00  0.00000000E+00
  0.00000000E+00  0.00000000E+00  0.00000000E+00
  0.00000000E+00  0.00000000E+00  0.00000000E+00
  0.00000000E+00  0.00000000E+00  0.00000000E+00
  0.00000000E+00  0.00000000E+00  0.00000000E+00
  0.00000000E+00  0.00000000E+00  0.00000000E+00
  0.00000000E+00  0.00000000E+00  0.00000000E+00
  0.00000000E+00  0.00000000E+00  0.00000000E+00
  0.00000000E+00  0.00000000E+00  0.00000000E+00
