POSCAR                                  
   3.57500000000000     
     2.0000000000000000   -2.0000000000000000    0.0000000000000000
     0.0000000000000000    2.0000000000000000   -2.0000000000000000
     1.0000000000000000    1.0000000000000000    1.0000000000000000
   Fe   Ni
    36    12
Direct
  0.0009729647186631  0.9965549388242110  0.9968367712005275
  0.5001728461712318  0.9989749419404177  0.9977774715032837
  0.7498604452681761  0.9950015254697462  0.0038146137352584
  0.2480761678354497  0.2440197502879116  0.9938795067662411
  0.0802158964539075  0.1677885215013362  0.3312970086805080
  0.3338843485763476  0.1643167350885975  0.3243836181914475
  0.1648437349172340  0.0851959453529290  0.6613587155906444
  0.5897900502862612  0.1710525009673134  0.3273050004566116
  0.4155476463115022  0.0857055535712234  0.6635196205925737
  0.8334404048756738  0.1662424002584899  0.3334467148501901
  0.6639181882284575  0.0853003344749510  0.6668055933273394
  0.9921870228386140  0.4936704350349785  0.0002116661551099
  0.2414078660972478  0.4931787162783579  0.9963127134794973
  0.4979027105357048  0.4972015837486410  0.0008061545359368
  0.3300989644324730  0.4203300832194401  0.3325940327499097
  0.7505080225470167  0.4969039035937541  0.0115947026558842
  0.5825297359196426  0.4158699929456091  0.3377316710146943
  0.4158249859452567  0.3386142580905371  0.6645229002171504
  0.8379093311318826  0.4183798518934054  0.3443369481027787
  0.6726670112787119  0.3379198805219090  0.6758165077206186
  0.0008417105184151  0.7457937735580487  0.9903569327718600
  0.2444419744482218  0.7488708180889603  0.9930839774490394
  0.0831204419686600  0.6646110886869039  0.3281172678604918
  0.4950836928317131  0.7457376883218600  0.0011513006663151
  0.3363036134716140  0.6708736070662624  0.3336213684078899
  0.1635710422777095  0.5812890477722448  0.6576640567328269
  0.7552268378468341  0.7489406737713651  0.0089282504949324
  0.5900265053148175  0.6699962342102808  0.3401627740565019
  0.8438367260000774  0.6705158955883661  0.3429785563393466
  0.6692457134043437  0.5874345759504749  0.6764725269124838
  0.9202067781756753  0.5898128920584043  0.6758858265001422
  0.0862495957917417  0.9177696512067541  0.3236534660728552
  0.3391106097493335  0.9153235324367515  0.3310025979461315
  0.1617826085309204  0.8327104139396084  0.6604833605129983
  0.6645536146850830  0.8373994228939097  0.6702546585875098
  0.9154353228104739  0.8384186401525753  0.6680401521016606
  0.2503780612463302  0.9975673213874714  0.9920036736387772
  0.9964746767134898  0.2451533723694865  0.0010060178245297
  0.5008551984714558  0.2478679466654654  0.9948946112788306
  0.7502468603683070  0.2472360059761343  0.0003144537762694
  0.9177852131189397  0.0889088618240166  0.6701488764279944
  0.0807626280250844  0.4143689245903914  0.3324138769398317
  0.1650229192754509  0.3330469874914215  0.6636918204736304
  0.9163528238550143  0.3337802519911222  0.6675129836195097
  0.4139990658923836  0.5834750589139617  0.6680982763187302
  0.5862667015209198  0.9181264985648596  0.3366036869456863
  0.4163705687468919  0.8325908149296808  0.6662106669985519
  0.8346901505706228  0.9201581465294169  0.3408920508184394
 
  0.00000000E+00  0.00000000E+00  0.00000000E+00
  0.00000000E+00  0.00000000E+00  0.00000000E+00
  0.00000000E+00  0.00000000E+00  0.00000000E+00
  0.00000000E+00  0.00000000E+00  0.00000000E+00
  0.00000000E+00  0.00000000E+00  0.00000000E+00
  0.00000000E+00  0.00000000E+00  0.00000000E+00
  0.00000000E+00  0.00000000E+00  0.00000000E+00
  0.00000000E+00  0.00000000E+00  0.00000000E+00
  0.00000000E+00  0.00000000E+00  0.00000000E+00
  0.00000000E+00  0.00000000E+00  0.00000000E+00
  0.00000000E+00  0.00000000E+00  0.00000000E+00
  0.00000000E+00  0.00000000E+00  0.00000000E+00
  0.00000000E+00  0.00000000E+00  0.00000000E+00
  0.00000000E+00  0.00000000E+00  0.00000000E+00
  0.00000000E+00  0.00000000E+00  0.00000000E+00
  0.00000000E+00  0.00000000E+00  0.00000000E+00
  0.00000000E+00  0.00000000E+00  0.00000000E+00
  0.00000000E+00  0.00000000E+00  0.00000000E+00
  0.00000000E+00  0.00000000E+00  0.00000000E+00
  0.00000000E+00  0.00000000E+00  0.00000000E+00
  0.00000000E+00  0.00000000E+00  0.00000000E+00
  0.00000000E+00  0.00000000E+00  0.00000000E+00
  0.00000000E+00  0.00000000E+00  0.00000000E+00
  0.00000000E+00  0.00000000E+00  0.00000000E+00
  0.00000000E+00  0.00000000E+00  0.00000000E+00
  0.00000000E+00  0.00000000E+00  0.00000000E+00
  0.00000000E+00  0.00000000E+00  0.00000000E+00
  0.00000000E+00  0.00000000E+00  0.00000000E+00
  0.00000000E+00  0.00000000E+00  0.00000000E+00
  0.00000000E+00  0.00000000E+00  0.00000000E+00
  0.00000000E+00  0.00000000E+00  0.00000000E+00
  0.00000000E+00  0.00000000E+00  0.00000000E+00
  0.00000000E+00  0.00000000E+00  0.00000000E+00
  0.00000000E+00  0.00000000E+00  0.00000000E+00
  0.00000000E+00  0.00000000E+00  0.00000000E+00
  0.00000000E+00  0.00000000E+00  0.00000000E+00
  0.00000000E+00  0.00000000E+00  0.00000000E+00
  0.00000000E+00  0.00000000E+00  0.00000000E+00
  0.00000000E+00  0.00000000E+00  0.00000000E+00
  0.00000000E+00  0.00000000E+00  0.00000000E+00
  0.00000000E+00  0.00000000E+00  0.00000000E+00
  0.00000000E+00  0.00000000E+00  0.00000000E+00
  0.00000000E+00  0.00000000E+00  0.00000000E+00
  0.00000000E+00  0.00000000E+00  0.00000000E+00
  0.00000000E+00  0.00000000E+00  0.00000000E+00
  0.00000000E+00  0.00000000E+00  0.00000000E+00
  0.00000000E+00  0.00000000E+00  0.00000000E+00
  0.00000000E+00  0.00000000E+00  0.00000000E+00
