POSCAR                                  
   3.57500000000000     
     2.0000000000000000    0.0000000000000000    0.0000000000000000
     0.0000000000000000    2.0000000000000000    0.0000000000000000
     0.0000000000000000    0.0000000000000000    2.0000000000000000
   Ni   Fe
     8    24
Direct
  0.9994016250348849  0.9985590838466436  0.4962721619137156
  0.0010486108691765  0.2505595927774920  0.7530983073859048
  0.2550051597191541  0.0006132734836513  0.7516748235019008
  0.0000641289397691  0.5008843173159079  0.4987693907444495
  0.9996474738262577  0.7488935182889875  0.7518571933768996
  0.2534613858680572  0.5016209671480354  0.2482342266100588
  0.7458703666898145  0.2498145646002001  0.4976288950503118
  0.7464728674511676  0.2503973141298061  0.0020591268056407
  0.9996353135564036  0.9974753377476944  0.0106741747609220
  0.0045985793814864  0.2476961275072895  0.2409191298313544
  0.2542893785965816  0.9992660818089760  0.2462076249530938
  0.2588215578445343  0.2504080410735838  0.4951643544372359
  0.2588499907024087  0.4987910642152968  0.7542447863515633
  0.4964795472235153  0.9944828970593207  0.4962170772383132
  0.5007631004309090  0.2560146958772265  0.7488475190697557
  0.7414576153650501  0.9946519849701403  0.7524447014418598
  0.0010202049978716  0.5026052712183571  0.0056059744436325
  0.9958480018436617  0.7517476994027774  0.2423760178209022
  0.2553194733287469  0.2498459663447363  0.0049298797864807
  0.2591647022223285  0.7501065969225422  0.4985619495630687
  0.5017668097755958  0.9968863448455778  0.0051390673697540
  0.4934369971399946  0.2457956204085505  0.2511947831529042
  0.4974919056707847  0.5053817043113042  0.5051569288707327
  0.5039871602999852  0.7440455467275271  0.7499494213190445
  0.7463392716589681  0.9954268426319075  0.2455071746398119
  0.7400116246526593  0.5029826939826876  0.7540374457239807
  0.2499980077185455  0.7508125394757954  0.0023705372851524
  0.5020302815729920  0.5029030806273838  0.9936826350480885
  0.5031061098465557  0.7548607481456244  0.2500190747494457
  0.7480068160649367  0.5057969821083006  0.2473217837355648
  0.7405344365739239  0.7507621337958668  0.4961354133970062
  0.7460714951333074  0.7499113672007951  0.0036984196214433
 
  0.00000000E+00  0.00000000E+00  0.00000000E+00
  0.00000000E+00  0.00000000E+00  0.00000000E+00
  0.00000000E+00  0.00000000E+00  0.00000000E+00
  0.00000000E+00  0.00000000E+00  0.00000000E+00
  0.00000000E+00  0.00000000E+00  0.00000000E+00
  0.00000000E+00  0.00000000E+00  0.00000000E+00
  0.00000000E+00  0.00000000E+00  0.00000000E+00
  0.00000000E+00  0.00000000E+00  0.00000000E+00
  0.00000000E+00  0.00000000E+00  0.00000000E+00
  0.00000000E+00  0.00000000E+00  0.00000000E+00
  0.00000000E+00  0.00000000E+00  0.00000000E+00
  0.00000000E+00  0.00000000E+00  0.00000000E+00
  0.00000000E+00  0.00000000E+00  0.00000000E+00
  0.00000000E+00  0.00000000E+00  0.00000000E+00
  0.00000000E+00  0.00000000E+00  0.00000000E+00
  0.00000000E+00  0.00000000E+00  0.00000000E+00
  0.00000000E+00  0.00000000E+00  0.00000000E+00
  0.00000000E+00  0.00000000E+00  0.00000000E+00
  0.00000000E+00  0.00000000E+00  0.00000000E+00
  0.00000000E+00  0.00000000E+00  0.00000000E+00
  0.00000000E+00  0.00000000E+00  0.00000000E+00
  0.00000000E+00  0.00000000E+00  0.00000000E+00
  0.00000000E+00  0.00000000E+00  0.00000000E+00
  0.00000000E+00  0.00000000E+00  0.00000000E+00
  0.00000000E+00  0.00000000E+00  0.00000000E+00
  0.00000000E+00  0.00000000E+00  0.00000000E+00
  0.00000000E+00  0.00000000E+00  0.00000000E+00
  0.00000000E+00  0.00000000E+00  0.00000000E+00
  0.00000000E+00  0.00000000E+00  0.00000000E+00
  0.00000000E+00  0.00000000E+00  0.00000000E+00
  0.00000000E+00  0.00000000E+00  0.00000000E+00
  0.00000000E+00  0.00000000E+00  0.00000000E+00
