POSCAR                                  
   1.00000000000000     
    10.1003100000000003    0.0000000000000000    0.0000000000000000
    -5.0501550000000002    8.7471250499999993    0.0000000000000000
     0.0000000000000000    0.0000000000000000   21.2537989799999991
   Ni   Fe
    33    31
Selective dynamics
Direct
  0.9990430000000003  0.0006419999999991  0.1905230300000014   F   F   F
  0.2484910000000013  0.9986279999999965  0.1920546300000012   F   F   F
  0.4990250000000032  0.0019270000000020  0.1918055300000034   F   F   F
  0.9981390000000019  0.2506739999999965  0.1919423000000009   F   F   F
  0.2492149999999995  0.2488620000000026  0.1911859599999985   F   F   F
  0.3346138647902844  0.1648746941066672  0.2879295679170892   T   T   T
  0.7489350000000030  0.2527809999999988  0.1931747499999972   F   F   F
  0.4183749999999975  0.0839399999999983  0.0941179900000009   F   F   F
  0.4175403153333856  0.0833107304378201  0.3828748494509166   T   T   T
  0.8338220159204004  0.1666834624015720  0.2903493013067808   T   T   T
  0.6679699999999968  0.0847229999999968  0.0956932499999965   F   F   F
  0.6670757840342028  0.0844534811233536  0.3845169941391827   T   T   T
  0.9990859999999984  0.4991079999999997  0.1930400099999972   F   F   F
  0.7481689999999972  0.4987110000000001  0.1920458999999965   F   F   F
  0.5853550588760420  0.4139801050115975  0.2889341192035474   T   T   T
  0.4196099999999987  0.3333709999999996  0.0941398200000023   F   F   F
  0.4174933386636971  0.3321649528574573  0.3821681051389118   T   T   T
  0.8301492229658852  0.4138869174713652  0.2902496539841460   T   T   T
  0.9185590000000019  0.3350160000000031  0.0956874299999981   F   F   F
  0.9187948202585821  0.3356278935017364  0.3836398573194581   T   T   T
  0.9976580000000013  0.7489690000000024  0.1925604199999995   F   F   F
  0.0809065696816908  0.6638910572272394  0.2893423026792543   T   T   T
  0.7534649999999985  0.7517280000000000  0.1916285900000005   F   F   F
  0.4173729999999978  0.5835239999999970  0.0962342500000020   F   F   F
  0.4146345797034026  0.5813218991348923  0.3858361500537003   T   T   T
  0.9155080000000027  0.5846190000000036  0.0954287200000010   F   F   F
  0.9121054646118565  0.5847645352365177  0.3836134062756910   T   T   T
  0.1668289999999999  0.8349079999999987  0.0945667399999977   F   F   F
  0.1642492261851419  0.8364732404930810  0.3833336847027927   T   T   T
  0.4171529999999990  0.8333879999999994  0.0967927000000017   F   F   F
  0.4145186893412753  0.8357282466108101  0.3858241337016614   T   T   T
  0.9198510000000013  0.8326369999999983  0.0953984499999976   F   F   F
  0.9165174082869759  0.8329147924821181  0.3836675862466484   T   T   T
  0.7491819999999976  0.0045379999999966  0.1931130500000009   F   F   F
  0.0849642598625910  0.1687396350921236  0.2860600414145249   T   T   T
  0.4931899999999985  0.2454400000000021  0.1916780600000010   F   F   F
  0.1713960000000014  0.0833930000000009  0.0953588799999991   F   F   F
  0.1688040709180800  0.0847760427013098  0.3835726954439648   T   T   T
  0.5877137602165536  0.1693899187900158  0.2891587936757813   T   T   T
  0.9169309999999982  0.0858149999999966  0.0941008200000013   F   F   F
  0.9161817797344918  0.0861554853813139  0.3845811650939134   T   T   T
  0.2459640000000007  0.4966930000000005  0.1936994400000032   F   F   F
  0.0766356443053170  0.4161497991033747  0.2901783478530709   T   T   T
  0.5029729999999972  0.4996209999999977  0.1909633300000024   F   F   F
  0.3399961567176950  0.4154450742372621  0.2891830373665996   T   T   T
  0.1708140000000000  0.3372420000000034  0.0955052600000030   F   F   F
  0.1686043087985403  0.3341892761592899  0.3868663083113605   T   T   T
  0.6726469999999978  0.3359809999999968  0.0960034699999994   F   F   F
  0.6699288386045187  0.3352032091952120  0.3872089188170990   T   T   T
  0.2449050000000028  0.7526999999999973  0.1934363700000006   F   F   F
  0.4984030000000033  0.7498829999999970  0.1926069800000008   F   F   F
  0.3326463938050478  0.6633055912383314  0.2925416221703871   T   T   T
  0.1647060000000025  0.5862709999999964  0.0973307900000009   F   F   F
  0.1646455256821701  0.5890064534807773  0.3872308658106963   T   T   T
  0.5877102491192540  0.6680298139948311  0.2906498345086685   T   T   T
  0.8304987874413370  0.6580874713131585  0.2886087992830674   T   T   T
  0.6676250000000010  0.5842620000000025  0.0951988200000002   F   F   F
  0.6638478447870412  0.5848030851053722  0.3878336954355880   T   T   T
  0.0821446205489633  0.9133475073380948  0.2866353820415149   T   T   T
  0.3324264702130994  0.9147437402820101  0.2908294933898085   T   T   T
  0.5825968836576748  0.9185615311720789  0.2911207383196318   T   T   T
  0.8338057435451348  0.9155851320371211  0.2894423378311318   T   T   T
  0.6684139999999985  0.8335110000000014  0.0965983099999974   F   F   F
  0.6610560841917954  0.8321398251308745  0.3881701954973555   T   T   T
 
  0.00000000E+00  0.00000000E+00  0.00000000E+00
  0.00000000E+00  0.00000000E+00  0.00000000E+00
  0.00000000E+00  0.00000000E+00  0.00000000E+00
  0.00000000E+00  0.00000000E+00  0.00000000E+00
  0.00000000E+00  0.00000000E+00  0.00000000E+00
  0.00000000E+00  0.00000000E+00  0.00000000E+00
  0.00000000E+00  0.00000000E+00  0.00000000E+00
  0.00000000E+00  0.00000000E+00  0.00000000E+00
  0.00000000E+00  0.00000000E+00  0.00000000E+00
  0.00000000E+00  0.00000000E+00  0.00000000E+00
  0.00000000E+00  0.00000000E+00  0.00000000E+00
  0.00000000E+00  0.00000000E+00  0.00000000E+00
  0.00000000E+00  0.00000000E+00  0.00000000E+00
  0.00000000E+00  0.00000000E+00  0.00000000E+00
  0.00000000E+00  0.00000000E+00  0.00000000E+00
  0.00000000E+00  0.00000000E+00  0.00000000E+00
  0.00000000E+00  0.00000000E+00  0.00000000E+00
  0.00000000E+00  0.00000000E+00  0.00000000E+00
  0.00000000E+00  0.00000000E+00  0.00000000E+00
  0.00000000E+00  0.00000000E+00  0.00000000E+00
  0.00000000E+00  0.00000000E+00  0.00000000E+00
  0.00000000E+00  0.00000000E+00  0.00000000E+00
  0.00000000E+00  0.00000000E+00  0.00000000E+00
  0.00000000E+00  0.00000000E+00  0.00000000E+00
  0.00000000E+00  0.00000000E+00  0.00000000E+00
  0.00000000E+00  0.00000000E+00  0.00000000E+00
  0.00000000E+00  0.00000000E+00  0.00000000E+00
  0.00000000E+00  0.00000000E+00  0.00000000E+00
  0.00000000E+00  0.00000000E+00  0.00000000E+00
  0.00000000E+00  0.00000000E+00  0.00000000E+00
  0.00000000E+00  0.00000000E+00  0.00000000E+00
  0.00000000E+00  0.00000000E+00  0.00000000E+00
  0.00000000E+00  0.00000000E+00  0.00000000E+00
  0.00000000E+00  0.00000000E+00  0.00000000E+00
  0.00000000E+00  0.00000000E+00  0.00000000E+00
  0.00000000E+00  0.00000000E+00  0.00000000E+00
  0.00000000E+00  0.00000000E+00  0.00000000E+00
  0.00000000E+00  0.00000000E+00  0.00000000E+00
  0.00000000E+00  0.00000000E+00  0.00000000E+00
  0.00000000E+00  0.00000000E+00  0.00000000E+00
  0.00000000E+00  0.00000000E+00  0.00000000E+00
  0.00000000E+00  0.00000000E+00  0.00000000E+00
  0.00000000E+00  0.00000000E+00  0.00000000E+00
  0.00000000E+00  0.00000000E+00  0.00000000E+00
  0.00000000E+00  0.00000000E+00  0.00000000E+00
  0.00000000E+00  0.00000000E+00  0.00000000E+00
  0.00000000E+00  0.00000000E+00  0.00000000E+00
  0.00000000E+00  0.00000000E+00  0.00000000E+00
  0.00000000E+00  0.00000000E+00  0.00000000E+00
  0.00000000E+00  0.00000000E+00  0.00000000E+00
  0.00000000E+00  0.00000000E+00  0.00000000E+00
  0.00000000E+00  0.00000000E+00  0.00000000E+00
  0.00000000E+00  0.00000000E+00  0.00000000E+00
  0.00000000E+00  0.00000000E+00  0.00000000E+00
  0.00000000E+00  0.00000000E+00  0.00000000E+00
  0.00000000E+00  0.00000000E+00  0.00000000E+00
  0.00000000E+00  0.00000000E+00  0.00000000E+00
  0.00000000E+00  0.00000000E+00  0.00000000E+00
  0.00000000E+00  0.00000000E+00  0.00000000E+00
  0.00000000E+00  0.00000000E+00  0.00000000E+00
  0.00000000E+00  0.00000000E+00  0.00000000E+00
  0.00000000E+00  0.00000000E+00  0.00000000E+00
  0.00000000E+00  0.00000000E+00  0.00000000E+00
  0.00000000E+00  0.00000000E+00  0.00000000E+00
