POSCAR                                  
   3.57500000000000     
     2.0000000000000000   -2.0000000000000000    0.0000000000000000
     0.0000000000000000    2.0000000000000000   -2.0000000000000000
     1.0000000000000000    1.0000000000000000    1.0000000000000000
   Fe   Ni
    36    12
Direct
  0.0008845589573892  0.9965076222140029  0.9967811673722684
  0.5001788403878638  0.9989535670889353 -0.0021626029339632
  0.7498383576338322  0.9949134751601575  0.0038801875725925
  0.2480960309425176  0.2440205598289341  0.9939451475374348
  0.0802064399932910  0.1677577329225109  0.3313206120656208
  0.3339647118698172  0.1643970608259370  0.3244055776270431
  0.1648701039056493  0.0852095923771321  0.6613473130952543
  0.5897711693613514  0.1710556258403916  0.3273727142800817
  0.4156177163858840  0.0857100102262043  0.6635753023098606
  0.8334513288243447  0.1662268702034053  0.3334434590238612
  0.6639564165886168  0.0853125056410422  0.6668579191984886
  0.9921203407570780  0.4936549198850984  0.0002293908342899
  0.2413464217511182  0.4931182927386308  0.9962891450782736
  0.4978768724699971  0.4972041210886921  0.0007294158675467
  0.3301681448052342  0.4203711299962052  0.3324936578119829
  0.7504670679315441  0.4968377106858699  0.0114287386347360
  0.5825470552654488  0.4159359388654059  0.3376398257007769
  0.4158018257798473  0.3386040075245182  0.6644632083294613
  0.8378347323886404  0.4183601449380898  0.3443876199807324
  0.6726998502788495  0.3379380896378193  0.6757796395993841
  0.0008856426230360  0.7457279664549892  0.9903210965454813
  0.2445086009631302  0.7489079782103886  0.9930814334679259
  0.0831296923701685  0.6645641468401152  0.3282400345321096
  0.4950550625190858  0.7456857438526179  0.0011809221923178
  0.3363203723396622  0.6709228996247131  0.3336297316384996
  0.1635666010130800  0.5813192558808937  0.6577545355849453
  0.7552156351537901  0.7488904643768037  0.0088875210071575
  0.5900780118133943  0.6700180115872346  0.3401197388339446
  0.8438684170531041  0.6705481152055148  0.3429740593858699
  0.6692559061519470  0.5874305739246712  0.6763687820133135
  0.9201283909264596  0.5897749145664888  0.6758184677526045
  0.0862825406020206  0.9178012769714363  0.3236819207209778
  0.3390767263639009  0.9152879857366434  0.3310059731723303
  0.1617413474829799  0.8327041406882904  0.6604811536959748
  0.6645431983803761  0.8374163814781246  0.6702940433104149
  0.9154181399290647  0.8384285692530962  0.6679681780986754
  0.2504116536566385  0.9976285919056019  0.9920367877698411
  0.9964534487061069  0.2451232846698960  0.0010372333345190
  0.5008418492726739  0.2478901431393020  0.9949364064373705
  0.7502361800416727  0.2472671635716809  0.0002964262734217
  0.9178060797798560  0.0889242999520198  0.6701699908061106
  0.0807424249745745  0.4143348803095045  0.3324411945356258
  0.1650683630868284  0.3330614830492085  0.6636395407264880
  0.9163901353217028  0.3338747143815926  0.6675508092678653
  0.4140483039738536  0.5834902538402426  0.6680198467739157
  0.5861883782815621  0.9181121067707412  0.3367106657461725
  0.4163698987474440  0.8326081506089521  0.6662225531708824
  0.8346710121935289  0.9201675254602388  0.3409235142195191
 
  0.00000000E+00  0.00000000E+00  0.00000000E+00
  0.00000000E+00  0.00000000E+00  0.00000000E+00
  0.00000000E+00  0.00000000E+00  0.00000000E+00
  0.00000000E+00  0.00000000E+00  0.00000000E+00
  0.00000000E+00  0.00000000E+00  0.00000000E+00
  0.00000000E+00  0.00000000E+00  0.00000000E+00
  0.00000000E+00  0.00000000E+00  0.00000000E+00
  0.00000000E+00  0.00000000E+00  0.00000000E+00
  0.00000000E+00  0.00000000E+00  0.00000000E+00
  0.00000000E+00  0.00000000E+00  0.00000000E+00
  0.00000000E+00  0.00000000E+00  0.00000000E+00
  0.00000000E+00  0.00000000E+00  0.00000000E+00
  0.00000000E+00  0.00000000E+00  0.00000000E+00
  0.00000000E+00  0.00000000E+00  0.00000000E+00
  0.00000000E+00  0.00000000E+00  0.00000000E+00
  0.00000000E+00  0.00000000E+00  0.00000000E+00
  0.00000000E+00  0.00000000E+00  0.00000000E+00
  0.00000000E+00  0.00000000E+00  0.00000000E+00
  0.00000000E+00  0.00000000E+00  0.00000000E+00
  0.00000000E+00  0.00000000E+00  0.00000000E+00
  0.00000000E+00  0.00000000E+00  0.00000000E+00
  0.00000000E+00  0.00000000E+00  0.00000000E+00
  0.00000000E+00  0.00000000E+00  0.00000000E+00
  0.00000000E+00  0.00000000E+00  0.00000000E+00
  0.00000000E+00  0.00000000E+00  0.00000000E+00
  0.00000000E+00  0.00000000E+00  0.00000000E+00
  0.00000000E+00  0.00000000E+00  0.00000000E+00
  0.00000000E+00  0.00000000E+00  0.00000000E+00
  0.00000000E+00  0.00000000E+00  0.00000000E+00
  0.00000000E+00  0.00000000E+00  0.00000000E+00
  0.00000000E+00  0.00000000E+00  0.00000000E+00
  0.00000000E+00  0.00000000E+00  0.00000000E+00
  0.00000000E+00  0.00000000E+00  0.00000000E+00
  0.00000000E+00  0.00000000E+00  0.00000000E+00
  0.00000000E+00  0.00000000E+00  0.00000000E+00
  0.00000000E+00  0.00000000E+00  0.00000000E+00
  0.00000000E+00  0.00000000E+00  0.00000000E+00
  0.00000000E+00  0.00000000E+00  0.00000000E+00
  0.00000000E+00  0.00000000E+00  0.00000000E+00
  0.00000000E+00  0.00000000E+00  0.00000000E+00
  0.00000000E+00  0.00000000E+00  0.00000000E+00
  0.00000000E+00  0.00000000E+00  0.00000000E+00
  0.00000000E+00  0.00000000E+00  0.00000000E+00
  0.00000000E+00  0.00000000E+00  0.00000000E+00
  0.00000000E+00  0.00000000E+00  0.00000000E+00
  0.00000000E+00  0.00000000E+00  0.00000000E+00
  0.00000000E+00  0.00000000E+00  0.00000000E+00
  0.00000000E+00  0.00000000E+00  0.00000000E+00
