POSCAR
1.0
    10.10031000     0.00000000     0.00000000
    -5.05015500     8.74712505     0.00000000
     0.00000000     0.00000000    21.25380000
  Ni  Fe  O
  33  31  5
Selective
Direct
     0.99904300     0.00064200     0.19052300   F F F
     0.24849100     0.99862800     0.19205500   F F F
     0.49902500     0.00192700     0.19180600   F F F
     0.99813900     0.25067400     0.19194200   F F F
     0.24921500     0.24886200     0.19118600   F F F
     0.33359300     0.16362400     0.28756900   T T T
     0.74893500     0.25278100     0.19317500   F F F
     0.41837500     0.08394000     0.09411800   F F F
     0.41592100     0.08436300     0.38322100   T T T
     0.83405900     0.16808000     0.29026500   T T T
     0.66797000     0.08472300     0.09569300   F F F
     0.66674700     0.08584000     0.38506500   T T T
     0.99908600     0.49910800     0.19304000   F F F
     0.74816900     0.49871100     0.19204600   F F F
     0.58274600     0.41462000     0.28662300   T T T
     0.41961000     0.33337100     0.09414000   F F F
     0.41251500     0.33032600     0.38228800   T T T
     0.82904600     0.41409300     0.28796200   T T T
     0.91855900     0.33501600     0.09568700   F F F
     0.91098500     0.33076700     0.38523400   T T T
     0.99765800     0.74896900     0.19256000   F F F
     0.08020100     0.66335200     0.28715400   T T T
     0.75346500     0.75172800     0.19162900   F F F
     0.41737300     0.58352400     0.09623400   F F F
     0.40934900     0.57954200     0.38505100   T T T
     0.91550800     0.58461900     0.09542900   F F F
     0.91038500     0.58650500     0.38530900   T T T
     0.16682900     0.83490800     0.09456700   F F F
     0.16422100     0.83580500     0.37802500   T T T
     0.41715300     0.83338800     0.09679300   F F F
     0.41402500     0.83208800     0.38581200   T T T
     0.91985100     0.83263700     0.09539800   F F F
     0.91329100     0.82915100     0.38477200   T T T
     0.74918200     0.00453800     0.19311300   F F F
     0.08189200     0.16453900     0.28443200   T T T
     0.49319000     0.24544000     0.19167800   F F F
     0.17139600     0.08339300     0.09535900   F F F
     0.17381800     0.08610700     0.38353400   T T T
     0.58713200     0.16610700     0.28633200   T T T
     0.91693100     0.08581500     0.09410100   F F F
     0.90796400     0.08357300     0.38547200   T T T
     0.24596400     0.49669300     0.19369900   F F F
     0.07685200     0.41856600     0.28733100   T T T
     0.50297300     0.49962100     0.19096300   F F F
     0.33570100     0.41552100     0.28649300   T T T
     0.17081400     0.33724200     0.09550500   F F F
     0.16019700     0.33088700     0.37862200   T T T
     0.67264700     0.33598100     0.09600300   F F F
     0.66553900     0.33742800     0.38042300   T T T
     0.24490500     0.75270000     0.19343600   F F F
     0.49840300     0.74988300     0.19260700   F F F
     0.33489400     0.66642100     0.29043900   T T T
     0.16470600     0.58627100     0.09733100   F F F
     0.16951300     0.59028900     0.38388100   T T T
     0.57822700     0.66472200     0.28833600   T T T
     0.82867800     0.65832300     0.28804300   T T T
     0.66762500     0.58426200     0.09519900   F F F
     0.66688800     0.58751000     0.38744900   T T T
     0.08150800     0.91266300     0.28525800   T T T
     0.33327500     0.91133100     0.28835000   T T T
     0.58156800     0.91561100     0.28875800   T T T
     0.83226200     0.91399100     0.28738000   T T T
     0.66841400     0.83351100     0.09659800   F F F
     0.66259900     0.83032900     0.38220800   T T T
     0.00431100     0.00862800     0.43583900   T T T
     0.49942200     0.49682500     0.43853200   T T T
     0.00254000     0.50287700     0.43642500   T T T
     0.49936600     0.00249800     0.43833100   T T T
    -1.25089151     1.00420306     0.44286413   T T T
