POSCAR                                  
   3.57100000000000     
     1.5000000000000000    0.0000000000000000   -1.5000000000000000
     2.0000000000000000    1.5000000000000000    2.5000000000000000
    -0.5000000000000000   -4.0000000000000000    0.5000000000000000
   Fe   Ni
    54    54
Direct
  0.1568898153993865  0.1089615986087618  0.9155687134017667
  0.0398995045377807  0.4470944650471833  0.9153577610112710
  0.2507982828745835  0.0013020637023949  0.7504925337618030
  0.4939191986068620  0.1110021993658338  0.9168635310411211
  0.1402758873515759  0.3360959694951605  0.7487040628102847
  0.3782317297825112  0.4463160165311064  0.9154892570705758
  0.0239091829523706  0.6634734571794356  0.7448715024436680
  0.2690897725879732  0.7770109873864641  0.9179823848361339
  0.5888579270449252 -0.0040633043964506  0.7472595983344628
  0.0590451425279826  0.3342327536404134  0.5019042383022669
  0.6472028706596523  0.2207916451533818  0.8319289994325414
  0.4735167224051830  0.3344663275577592  0.7489705154516472
  0.5366967810238448  0.5578832136142874  0.8330365366662924
  0.6030394660926764  0.7813852311917917  0.9162825953789148
  0.4998736060358022  0.0005002761308112  0.5008309707837546
  0.3199054768334616  0.1089000361759747  0.4142916250079454
  0.1470043744162635  0.2199520232590048  0.3307762326856771
  0.5622881373996232  0.2224904445709953  0.5834002440345222
  0.0386126570853374  0.5587066176047256  0.3326588106299441
  0.9829411789894887  0.2179627479429430  0.8294056360063297
  0.6343806248305670  0.4453046084240024  0.6666412400645279
  0.2815396046186530  0.6652105127134542  0.5050529355909047
  0.0996019168927787  0.7828763543267608  0.4154683129207722
  0.3397616086227290  0.8884256342244442  0.5843783844595259
  0.9349026957768215  0.7752166770169133  0.9174842382315235
 -0.0053860441306377  0.0008072279687967  0.0013284781346878
  0.8360192670243908 -0.0053940544395117  0.5018452648783136
  0.6579860668086905  0.1138901605556084  0.4167419350933564
  0.4807173112583079  0.2253680968924028  0.3335704744670918
  0.3057307623746963  0.3376513081680392  0.2530031154857550
  0.1255244174451403  0.4407961024257965  0.1652026854293399
  0.8956586881906353  0.2213638126433727  0.5841750122087753
  0.7219317750890041  0.3355501698836539  0.5009021536256590
  0.3700414423073197  0.5588775831840910  0.3341393771634449
  0.0157201416641275  0.7786368070249983  0.1664270639878558
  0.4390889679226549  0.7792075801325352  0.4183264957153857
  0.3347666294584477 -0.0007214376433926 -0.0009206640490305
  0.4002092914212568  0.2233023878220557  0.0880568501783480
  0.2214761100456091  0.3310929117795528 -0.0023657294821371
  0.9867608886550387  0.1073695498071452  0.4143307321710352
  0.8113282868716026  0.2220377761940423  0.3305358558934240
  0.2887078021399970  0.5551131435191327  0.0854627046899120
  0.8800689302499829  0.4464069070991694  0.4186960972506709
  0.7021967859465796  0.5566648345939865  0.3347856708696443
  0.3534567892290619  0.7790895560207346  0.1643034532665132
  0.9481225241162700  0.6715355537270613  0.5071647406107839
  0.5963295136808813  0.8901569668234776  0.3318436922515133
  0.7356790557259523  0.2184015698576705  0.0821909336154325
  0.5574224341331780  0.3350467619033176  0.0008442085993283
  0.9712056705308744  0.3323059463277218  0.2504245518710944
  0.7915510688285563  0.4417581076083317  0.1679538952676491
  0.6200635592502725  0.5575574190369839  0.0864732488085548
  0.9528696112492019  0.5509003312879701  0.0858546201388908
  0.7777636900253718  0.6620722346095946 -0.0020433584908224
  0.0751623475933856  0.1123745310226430  0.6658458594228260
  0.3163892980363457  0.2224103441751448  0.8315293796090403
  0.2044506277192416  0.5579002272832860  0.8327903625394831
  0.0904046836341285  0.8875176731101105  0.8329654959243997
  0.1656939600037754 -0.0004027002120090  0.4995834152137432
  0.4061326024810192  0.1115333807261950  0.6661828726969198
  0.2299355479304215  0.2218849003113516  0.5825333289308037
  0.8250491089019286  0.1090678622885102  0.9142026992454402
  0.2997206970307291  0.4457323106151612  0.6683864362510511
  0.1216544607338040  0.5541499397041102  0.5837255496559294
  0.7126912839772200  0.4413552343672821  0.9159006144239774
  0.3612616580563353  0.6677118411283980  0.7500678762789488
  0.1871487631846963  0.7789989508590919  0.6682525824952912
  0.0094593828562668  0.8876706183837952  0.5848376948092262
  0.4261424569819520  0.8886620226603135  0.8320442980178089
  0.0818420714047948 -0.0007239026659443  0.2491361812389898
  0.9209243426339025 -0.0000141390502483  0.7493875666442509
  0.7402268884274884  0.1103501977710009  0.6661618216391633
  0.3882005630464349  0.3325469498016356  0.5004729100800153
  0.2128426226262456  0.4450815079610472  0.4183169898502098
  0.8052750684695135  0.3320892757862303  0.7496302877308589
  0.4559702134954238  0.5539434519783231  0.5833199884091775
  0.8692197914997956  0.5549508162544546  0.8315725132751143
  0.6957732910450503  0.6672621731074464  0.7495136473903279
  0.5189277558343867  0.7768017747216920  0.6674963310886910
  0.7627968117612768  0.8892357541442456  0.8346702928019776
  0.4155090117076258  0.0019435624162623  0.2505026925807546
  0.2387532392619391  0.1110786157975175  0.1666246045441182
  0.0652250783762125  0.2200006535612350  0.0830312742133602
  0.5454651112612688  0.4458821916172050  0.4179980904179414
  0.1958495067806491  0.6697355529928539  0.2498088057447964
  0.9635162068889255  0.4426556169452495  0.6657215506372693
  0.7879654901486555  0.5563635479732441  0.5831478373286970
  0.6128052737465972  0.6678662550342602  0.5023685948594717
  0.2603993092835991  0.8900203368347716  0.3326469511571921
  0.8516487417152586  0.7784656914694250  0.6683799683022611
  0.6741609898843486  0.8880156132367082  0.5831538798658594
  0.7494490274424037  0.0012614307386399  0.2497541700532173
  0.5741503088313190  0.1101205839786377  0.1657702715728333
  0.6354282727927575  0.3348539905602581  0.2512894289861329
  0.4616914304227829  0.4455107302114917  0.1686746074653792
  0.1131011821945885  0.6658847246985579  0.0009410725039860
  0.5289172108030405  0.6692497146827455  0.2514210707033874
  0.1746510564778143  0.8899122469283508  0.0826796731776058
  0.7704113600783048  0.7766816507384335  0.4170293326967627
  0.6651696118808880 -0.0008534374870927 -0.0014869253980866
  0.9051710695212851  0.1091282692454060  0.1661521369947822
  0.4458397588492699  0.6677806524918838 -0.0000589999301769
  0.8601593002054316  0.6688419105745655  0.2503528357484167
  0.6846594641659479  0.7774114357772723  0.1649523138579578
  0.5094827882039850  0.8900717958105019  0.0826724887524206
  0.9229774699727945  0.8892504641004272  0.3327729210019038
  0.8880472696513305  0.3289466427421477  0.9981956872612872
  0.8409035572241010  0.8874846888138906  0.0826222492281932
 
  0.00000000E+00  0.00000000E+00  0.00000000E+00
  0.00000000E+00  0.00000000E+00  0.00000000E+00
  0.00000000E+00  0.00000000E+00  0.00000000E+00
  0.00000000E+00  0.00000000E+00  0.00000000E+00
  0.00000000E+00  0.00000000E+00  0.00000000E+00
  0.00000000E+00  0.00000000E+00  0.00000000E+00
  0.00000000E+00  0.00000000E+00  0.00000000E+00
  0.00000000E+00  0.00000000E+00  0.00000000E+00
  0.00000000E+00  0.00000000E+00  0.00000000E+00
  0.00000000E+00  0.00000000E+00  0.00000000E+00
  0.00000000E+00  0.00000000E+00  0.00000000E+00
  0.00000000E+00  0.00000000E+00  0.00000000E+00
  0.00000000E+00  0.00000000E+00  0.00000000E+00
  0.00000000E+00  0.00000000E+00  0.00000000E+00
  0.00000000E+00  0.00000000E+00  0.00000000E+00
  0.00000000E+00  0.00000000E+00  0.00000000E+00
  0.00000000E+00  0.00000000E+00  0.00000000E+00
  0.00000000E+00  0.00000000E+00  0.00000000E+00
  0.00000000E+00  0.00000000E+00  0.00000000E+00
  0.00000000E+00  0.00000000E+00  0.00000000E+00
  0.00000000E+00  0.00000000E+00  0.00000000E+00
  0.00000000E+00  0.00000000E+00  0.00000000E+00
  0.00000000E+00  0.00000000E+00  0.00000000E+00
  0.00000000E+00  0.00000000E+00  0.00000000E+00
  0.00000000E+00  0.00000000E+00  0.00000000E+00
  0.00000000E+00  0.00000000E+00  0.00000000E+00
  0.00000000E+00  0.00000000E+00  0.00000000E+00
  0.00000000E+00  0.00000000E+00  0.00000000E+00
  0.00000000E+00  0.00000000E+00  0.00000000E+00
  0.00000000E+00  0.00000000E+00  0.00000000E+00
  0.00000000E+00  0.00000000E+00  0.00000000E+00
  0.00000000E+00  0.00000000E+00  0.00000000E+00
  0.00000000E+00  0.00000000E+00  0.00000000E+00
  0.00000000E+00  0.00000000E+00  0.00000000E+00
  0.00000000E+00  0.00000000E+00  0.00000000E+00
  0.00000000E+00  0.00000000E+00  0.00000000E+00
  0.00000000E+00  0.00000000E+00  0.00000000E+00
  0.00000000E+00  0.00000000E+00  0.00000000E+00
  0.00000000E+00  0.00000000E+00  0.00000000E+00
  0.00000000E+00  0.00000000E+00  0.00000000E+00
  0.00000000E+00  0.00000000E+00  0.00000000E+00
  0.00000000E+00  0.00000000E+00  0.00000000E+00
  0.00000000E+00  0.00000000E+00  0.00000000E+00
  0.00000000E+00  0.00000000E+00  0.00000000E+00
  0.00000000E+00  0.00000000E+00  0.00000000E+00
  0.00000000E+00  0.00000000E+00  0.00000000E+00
  0.00000000E+00  0.00000000E+00  0.00000000E+00
  0.00000000E+00  0.00000000E+00  0.00000000E+00
  0.00000000E+00  0.00000000E+00  0.00000000E+00
  0.00000000E+00  0.00000000E+00  0.00000000E+00
  0.00000000E+00  0.00000000E+00  0.00000000E+00
  0.00000000E+00  0.00000000E+00  0.00000000E+00
  0.00000000E+00  0.00000000E+00  0.00000000E+00
  0.00000000E+00  0.00000000E+00  0.00000000E+00
  0.00000000E+00  0.00000000E+00  0.00000000E+00
  0.00000000E+00  0.00000000E+00  0.00000000E+00
  0.00000000E+00  0.00000000E+00  0.00000000E+00
  0.00000000E+00  0.00000000E+00  0.00000000E+00
  0.00000000E+00  0.00000000E+00  0.00000000E+00
  0.00000000E+00  0.00000000E+00  0.00000000E+00
  0.00000000E+00  0.00000000E+00  0.00000000E+00
  0.00000000E+00  0.00000000E+00  0.00000000E+00
  0.00000000E+00  0.00000000E+00  0.00000000E+00
  0.00000000E+00  0.00000000E+00  0.00000000E+00
  0.00000000E+00  0.00000000E+00  0.00000000E+00
  0.00000000E+00  0.00000000E+00  0.00000000E+00
  0.00000000E+00  0.00000000E+00  0.00000000E+00
  0.00000000E+00  0.00000000E+00  0.00000000E+00
  0.00000000E+00  0.00000000E+00  0.00000000E+00
  0.00000000E+00  0.00000000E+00  0.00000000E+00
  0.00000000E+00  0.00000000E+00  0.00000000E+00
  0.00000000E+00  0.00000000E+00  0.00000000E+00
  0.00000000E+00  0.00000000E+00  0.00000000E+00
  0.00000000E+00  0.00000000E+00  0.00000000E+00
  0.00000000E+00  0.00000000E+00  0.00000000E+00
  0.00000000E+00  0.00000000E+00  0.00000000E+00
  0.00000000E+00  0.00000000E+00  0.00000000E+00
  0.00000000E+00  0.00000000E+00  0.00000000E+00
  0.00000000E+00  0.00000000E+00  0.00000000E+00
  0.00000000E+00  0.00000000E+00  0.00000000E+00
  0.00000000E+00  0.00000000E+00  0.00000000E+00
  0.00000000E+00  0.00000000E+00  0.00000000E+00
  0.00000000E+00  0.00000000E+00  0.00000000E+00
  0.00000000E+00  0.00000000E+00  0.00000000E+00
  0.00000000E+00  0.00000000E+00  0.00000000E+00
  0.00000000E+00  0.00000000E+00  0.00000000E+00
  0.00000000E+00  0.00000000E+00  0.00000000E+00
  0.00000000E+00  0.00000000E+00  0.00000000E+00
  0.00000000E+00  0.00000000E+00  0.00000000E+00
  0.00000000E+00  0.00000000E+00  0.00000000E+00
  0.00000000E+00  0.00000000E+00  0.00000000E+00
  0.00000000E+00  0.00000000E+00  0.00000000E+00
  0.00000000E+00  0.00000000E+00  0.00000000E+00
  0.00000000E+00  0.00000000E+00  0.00000000E+00
  0.00000000E+00  0.00000000E+00  0.00000000E+00
  0.00000000E+00  0.00000000E+00  0.00000000E+00
  0.00000000E+00  0.00000000E+00  0.00000000E+00
  0.00000000E+00  0.00000000E+00  0.00000000E+00
  0.00000000E+00  0.00000000E+00  0.00000000E+00
  0.00000000E+00  0.00000000E+00  0.00000000E+00
  0.00000000E+00  0.00000000E+00  0.00000000E+00
  0.00000000E+00  0.00000000E+00  0.00000000E+00
  0.00000000E+00  0.00000000E+00  0.00000000E+00
  0.00000000E+00  0.00000000E+00  0.00000000E+00
  0.00000000E+00  0.00000000E+00  0.00000000E+00
  0.00000000E+00  0.00000000E+00  0.00000000E+00
  0.00000000E+00  0.00000000E+00  0.00000000E+00
  0.00000000E+00  0.00000000E+00  0.00000000E+00
