POSCAR
1.0
     9.96738000     0.00000000     0.00000000
    -4.98369000     8.63200429     0.00000000
     0.00000000     0.00000000    21.10375000
  Ni  O  H
  64  6  1
Selective
Direct
     0.11283300     0.22566700     0.09477000   F F F
     0.11288000     0.22574500     0.37903200   T T T
     0.19616700     0.14233300     0.19117800   F F F
     0.02956400     0.05914400     0.28480300   T T T
     0.36283300     0.22566700     0.09477000   F F F
     0.36287700     0.22571500     0.37903400   T T T
     0.44616700     0.14233300     0.19117800   F F F
     0.27957900     0.05914100     0.28478800   T T T
     0.61283300     0.22566700     0.09477000   F F F
     0.61284800     0.22571400     0.37902800   T T T
     0.69616700     0.14233300     0.19117800   F F F
     0.52959000     0.05915600     0.28478400   T T T
     0.86283300     0.22566700     0.09477000   F F F
     0.86283200     0.22571500     0.37903900   T T T
     0.94616700     0.14233300     0.19117800   F F F
     0.77957500     0.05915500     0.28478700   T T T
     0.11283300     0.47566700     0.09477000   F F F
     0.11289900     0.47574900     0.37903700   T T T
     0.19616700     0.39233300     0.19117800   F F F
     0.02953900     0.30912500     0.28479600   T T T
     0.36283300     0.47566700     0.09477000   F F F
     0.36284400     0.47575700     0.37903600   T T T
     0.44616700     0.39233300     0.19117800   F F F
     0.27955800     0.30913200     0.28479700   T T T
     0.61283300     0.47566700     0.09477000   F F F
     0.61282500     0.47572000     0.37903200   T T T
     0.69616700     0.39233300     0.19117800   F F F
     0.52959300     0.30913700     0.28479100   T T T
     0.86283300     0.47566700     0.09477000   F F F
     0.86290700     0.47571200     0.37903200   T T T
     0.94616700     0.39233300     0.19117800   F F F
     0.77956800     0.30913600     0.28478700   T T T
     0.11283300     0.72566700     0.09477000   F F F
     0.11290700     0.72574000     0.37903600   T T T
     0.19616700     0.64233300     0.19117800   F F F
     0.02954200     0.55912200     0.28479200   T T T
     0.36283300     0.72566700     0.09477000   F F F
     0.36288500     0.72574400     0.37904400   T T T
     0.44616700     0.64233300     0.19117800   F F F
     0.27954500     0.55912300     0.28479500   T T T
     0.61283300     0.72566700     0.09477000   F F F
     0.61283000     0.72574000     0.37903900   T T T
     0.69616700     0.64233300     0.19117800   F F F
     0.52958000     0.55912800     0.28479500   T T T
     0.86283300     0.72566700     0.09477000   F F F
     0.86284000     0.72572200     0.37902500   T T T
     0.94616700     0.64233300     0.19117800   F F F
     0.77957800     0.55912500     0.28479600   T T T
     0.11283300     0.97566700     0.09477000   F F F
     0.11290000     0.97573900     0.37904100   T T T
     0.19616700     0.89233300     0.19117800   F F F
     0.02957300     0.80914400     0.28480100   T T T
     0.36283300     0.97566700     0.09477000   F F F
     0.36288200     0.97572300     0.37903100   T T T
     0.44616700     0.89233300     0.19117800   F F F
     0.27956300     0.80913500     0.28479400   T T T
     0.61283300     0.97566700     0.09477000   F F F
     0.61285200     0.97572100     0.37903000   T T T
     0.69616700     0.89233300     0.19117800   F F F
     0.52957300     0.80914600     0.28479300   T T T
     0.86283300     0.97566700     0.09477000   F F F
     0.86283000     0.97574600     0.37904400   T T T
     0.94616700     0.89233300     0.19117800   F F F
     0.77958100     0.80916300     0.28479900   T T T
     0.19472660     0.14054466     0.43419937   T T T
     0.69547172     0.64038229     0.43691152   T T T
     0.19531669     0.64231791     0.43478954   T T T
     0.69685249     0.14132808     0.43670909   T T T
     0.52874776     0.30983284     0.45122529   T T T
     0.52874776     0.30983284     0.51438942   T T T
     0.57630424     0.24870481     0.52574285   T T T
