POSCAR                                  
   1.00000000000000     
     9.9673771900000006    0.0000000000000000    0.0000000000000000
    -4.9836885899999999    8.6320018500000000    0.0000000000000000
     0.0000000000000000    0.0000000000000000   21.1037470499999991
   Ni
    64
Selective dynamics
Direct
  0.1128333300000008  0.2256666600000017  0.0947699000000028   F   F   F
  0.1128801280410451  0.2257445585871631  0.3790324932447163   T   T   T
  0.1961666600000029  0.1423333199999988  0.1911784799999978   F   F   F
  0.0295641699685466  0.0591440558532066  0.2848030935582090   T   T   T
  0.3628333300000008  0.2256666600000017  0.0947699000000028   F   F   F
  0.3628769566753369  0.2257154337248055  0.3790341408717182   T   T   T
  0.4461666600000029  0.1423333199999988  0.1911784799999978   F   F   F
  0.2795790117592528  0.0591409697591940  0.2847881816291545   T   T   T
  0.6128333300000008  0.2256666600000017  0.0947699000000028   F   F   F
  0.6128482636268017  0.2257137186311553  0.3790283508135192   T   T   T
  0.6961666600000029  0.1423333199999988  0.1911784799999978   F   F   F
  0.5295896473373526  0.0591560407614465  0.2847838990529331   T   T   T
  0.8628333300000008  0.2256666600000017  0.0947699000000028   F   F   F
  0.8628325078725404  0.2257148341872425  0.3790394298059588   T   T   T
  0.9461666600000029  0.1423333199999988  0.1911784799999978   F   F   F
  0.7795750645094695  0.0591552285050873  0.2847869607669620   T   T   T
  0.1128333300000008  0.4756666600000017  0.0947699000000028   F   F   F
  0.1128991956359184  0.4757485604990013  0.3790367056220056   T   T   T
  0.1961666600000029  0.3923333199999988  0.1911784799999978   F   F   F
  0.0295390163810154  0.3091250451230325  0.2847955441000613   T   T   T
  0.3628333300000008  0.4756666600000017  0.0947699000000028   F   F   F
  0.3628437523596218  0.4757566403325867  0.3790355436398965   T   T   T
  0.4461666600000029  0.3923333199999988  0.1911784799999978   F   F   F
  0.2795578112484412  0.3091315593756145  0.2847973087200249   T   T   T
  0.6128333300000008  0.4756666600000017  0.0947699000000028   F   F   F
  0.6128247976030493  0.4757204870860818  0.3790315706000584   T   T   T
  0.6961666600000029  0.3923333199999988  0.1911784799999978   F   F   F
  0.5295931469044793  0.3091374149612306  0.2847908396117775   T   T   T
  0.8628333300000008  0.4756666600000017  0.0947699000000028   F   F   F
  0.8629071419630421  0.4757122576079926  0.3790316160713004   T   T   T
  0.9461666600000029  0.3923333199999988  0.1911784799999978   F   F   F
  0.7795681188844662  0.3091357260425455  0.2847866733859354   T   T   T
  0.1128333300000008  0.7256666600000017  0.0947699000000028   F   F   F
  0.1129067698714394  0.7257400914776078  0.3790362173815021   T   T   T
  0.1961666600000029  0.6423333199999988  0.1911784799999978   F   F   F
  0.0295423117097095  0.5591217580801215  0.2847923185612053   T   T   T
  0.3628333300000008  0.7256666600000017  0.0947699000000028   F   F   F
  0.3628854176652493  0.7257444978626381  0.3790444044382861   T   T   T
  0.4461666600000029  0.6423333199999988  0.1911784799999978   F   F   F
  0.2795446181462918  0.5591232714096576  0.2847949817063930   T   T   T
  0.6128333300000008  0.7256666600000017  0.0947699000000028   F   F   F
  0.6128303341956722  0.7257402981230795  0.3790389078152007   T   T   T
  0.6961666600000029  0.6423333199999988  0.1911784799999978   F   F   F
  0.5295803818919966  0.5591283762899941  0.2847954700844303   T   T   T
  0.8628333300000008  0.7256666600000017  0.0947699000000028   F   F   F
  0.8628403442210191  0.7257223175869623  0.3790251457168206   T   T   T
  0.9461666600000029  0.6423333199999988  0.1911784799999978   F   F   F
  0.7795779388976780  0.5591253213660057  0.2847957978764442   T   T   T
  0.1128333300000008  0.9756666600000017  0.0947699000000028   F   F   F
  0.1129003454211614  0.9757388593420480  0.3790410202149679   T   T   T
  0.1961666600000029  0.8923333199999988  0.1911784799999978   F   F   F
  0.0295734683200315  0.8091436137147083  0.2848010855358571   T   T   T
  0.3628333300000008  0.9756666600000017  0.0947699000000028   F   F   F
  0.3628816710215836  0.9757228642585933  0.3790312809273447   T   T   T
  0.4461666600000029  0.8923333199999988  0.1911784799999978   F   F   F
  0.2795630498006010  0.8091350199558727  0.2847938158203658   T   T   T
  0.6128333300000008  0.9756666600000017  0.0947699000000028   F   F   F
  0.6128519169664406  0.9757205477226344  0.3790298666473594   T   T   T
  0.6961666600000029  0.8923333199999988  0.1911784799999978   F   F   F
  0.5295726875793452  0.8091457475733254  0.2847925262303110   T   T   T
  0.8628333300000008  0.9756666600000017  0.0947699000000028   F   F   F
  0.8628303124471375  0.9757460744791796  0.3790435095660383   T   T   T
  0.9461666600000029  0.8923333199999988  0.1911784799999978   F   F   F
  0.7795815043929912  0.8091630418988083  0.2847989373442046   T   T   T
 
  0.00000000E+00  0.00000000E+00  0.00000000E+00
  0.00000000E+00  0.00000000E+00  0.00000000E+00
  0.00000000E+00  0.00000000E+00  0.00000000E+00
  0.00000000E+00  0.00000000E+00  0.00000000E+00
  0.00000000E+00  0.00000000E+00  0.00000000E+00
  0.00000000E+00  0.00000000E+00  0.00000000E+00
  0.00000000E+00  0.00000000E+00  0.00000000E+00
  0.00000000E+00  0.00000000E+00  0.00000000E+00
  0.00000000E+00  0.00000000E+00  0.00000000E+00
  0.00000000E+00  0.00000000E+00  0.00000000E+00
  0.00000000E+00  0.00000000E+00  0.00000000E+00
  0.00000000E+00  0.00000000E+00  0.00000000E+00
  0.00000000E+00  0.00000000E+00  0.00000000E+00
  0.00000000E+00  0.00000000E+00  0.00000000E+00
  0.00000000E+00  0.00000000E+00  0.00000000E+00
  0.00000000E+00  0.00000000E+00  0.00000000E+00
  0.00000000E+00  0.00000000E+00  0.00000000E+00
  0.00000000E+00  0.00000000E+00  0.00000000E+00
  0.00000000E+00  0.00000000E+00  0.00000000E+00
  0.00000000E+00  0.00000000E+00  0.00000000E+00
  0.00000000E+00  0.00000000E+00  0.00000000E+00
  0.00000000E+00  0.00000000E+00  0.00000000E+00
  0.00000000E+00  0.00000000E+00  0.00000000E+00
  0.00000000E+00  0.00000000E+00  0.00000000E+00
  0.00000000E+00  0.00000000E+00  0.00000000E+00
  0.00000000E+00  0.00000000E+00  0.00000000E+00
  0.00000000E+00  0.00000000E+00  0.00000000E+00
  0.00000000E+00  0.00000000E+00  0.00000000E+00
  0.00000000E+00  0.00000000E+00  0.00000000E+00
  0.00000000E+00  0.00000000E+00  0.00000000E+00
  0.00000000E+00  0.00000000E+00  0.00000000E+00
  0.00000000E+00  0.00000000E+00  0.00000000E+00
  0.00000000E+00  0.00000000E+00  0.00000000E+00
  0.00000000E+00  0.00000000E+00  0.00000000E+00
  0.00000000E+00  0.00000000E+00  0.00000000E+00
  0.00000000E+00  0.00000000E+00  0.00000000E+00
  0.00000000E+00  0.00000000E+00  0.00000000E+00
  0.00000000E+00  0.00000000E+00  0.00000000E+00
  0.00000000E+00  0.00000000E+00  0.00000000E+00
  0.00000000E+00  0.00000000E+00  0.00000000E+00
  0.00000000E+00  0.00000000E+00  0.00000000E+00
  0.00000000E+00  0.00000000E+00  0.00000000E+00
  0.00000000E+00  0.00000000E+00  0.00000000E+00
  0.00000000E+00  0.00000000E+00  0.00000000E+00
  0.00000000E+00  0.00000000E+00  0.00000000E+00
  0.00000000E+00  0.00000000E+00  0.00000000E+00
  0.00000000E+00  0.00000000E+00  0.00000000E+00
  0.00000000E+00  0.00000000E+00  0.00000000E+00
  0.00000000E+00  0.00000000E+00  0.00000000E+00
  0.00000000E+00  0.00000000E+00  0.00000000E+00
  0.00000000E+00  0.00000000E+00  0.00000000E+00
  0.00000000E+00  0.00000000E+00  0.00000000E+00
  0.00000000E+00  0.00000000E+00  0.00000000E+00
  0.00000000E+00  0.00000000E+00  0.00000000E+00
  0.00000000E+00  0.00000000E+00  0.00000000E+00
  0.00000000E+00  0.00000000E+00  0.00000000E+00
  0.00000000E+00  0.00000000E+00  0.00000000E+00
  0.00000000E+00  0.00000000E+00  0.00000000E+00
  0.00000000E+00  0.00000000E+00  0.00000000E+00
  0.00000000E+00  0.00000000E+00  0.00000000E+00
  0.00000000E+00  0.00000000E+00  0.00000000E+00
  0.00000000E+00  0.00000000E+00  0.00000000E+00
  0.00000000E+00  0.00000000E+00  0.00000000E+00
  0.00000000E+00  0.00000000E+00  0.00000000E+00
