POSCAR
1.0
    10.11163000     0.00000000     0.00000000
    -5.05581500     8.75692845     0.00000000
     0.00000000     0.00000000    21.26643000
  Fe  Ni  O
  48  16  4
Selective
Direct
     0.00194700     0.99920000     0.09682900   F F F
     0.00215200     0.00093600     0.38285600   T T T
     0.49880600     0.99647600     0.09614500   F F F
     0.50052700     0.00443100     0.38640200   T T T
     0.74316000     0.99645900     0.09443100   F F F
     0.75146700     0.00003400     0.38519400   T T T
     0.24913600     0.25322600     0.09681000   F F F
     0.25170100     0.24725900     0.38553000   T T T
     0.08873200     0.16149400     0.19059200   F F F
     0.32962600     0.16609800     0.19506300   F F F
     0.16223300     0.08419100     0.29115900   T T T
     0.58333000     0.16550300     0.19443700   F F F
     0.41288700     0.07959500     0.29128900   T T T
     0.82651500     0.16651000     0.19326300   F F F
     0.66317000     0.07855600     0.29032600   T T T
     0.00320800     0.51090900     0.09451300   F F F
     0.00498200     0.49311500     0.38004500   T T T
     0.25586900     0.50577700     0.09734600   F F F
     0.25095300     0.49922500     0.38259900   T T T
     0.49960200     0.50304900     0.09754100   F F F
     0.49607400     0.49794700     0.38202900   T T T
     0.33859900     0.41583700     0.18939300   F F F
     0.75679100     0.50804300     0.09630900   F F F
     0.74802900     0.49065100     0.38662800   T T T
     0.58633600     0.42229400     0.19423600   F F F
     0.41621400     0.33813600     0.28787300   T T T
     0.82677100     0.41676200     0.19199500   F F F
     0.66871000     0.33173900     0.28875300   T T T
     0.99180600     0.74702800     0.09571300   F F F
    -0.00197100     0.74246800     0.38236700   T T T
     0.25104600     0.74563900     0.09703600   F F F
     0.24869700     0.75106500     0.38233700   T T T
     0.08604600     0.67086900     0.19220200   F F F
     0.50153700     0.74905700     0.09752900   F F F
     0.49660900     0.75283400     0.38154400   T T T
     0.33005900     0.66135600     0.19018600   F F F
     0.16701500     0.58224000     0.28537800   T T T
     0.74777500     0.74863100     0.09404500   F F F
     0.74638300     0.75289100     0.38879600   T T T
     0.58008200     0.66096300     0.19152700   F F F
     0.83213700     0.66199500     0.19303500   F F F
     0.66934700     0.58174000     0.28879200   T T T
     0.92041200     0.58600600     0.28541200   T T T
     0.08603600     0.91635500     0.19371200   F F F
     0.32743000     0.91932200     0.19293700   F F F
     0.16407800     0.83201600     0.28812200   T T T
     0.66593700     0.83069700     0.28620500   T T T
     0.91421900     0.82997200     0.28770100   T T T
     0.24916500     0.99813100     0.09559800   F F F
     0.24714300     0.99614200     0.38397600   T T T
     0.00129700     0.24974200     0.09658600   F F F
     0.00237000     0.24811600     0.37799300   T T T
     0.49933100     0.25162700     0.09537300   F F F
     0.50026800     0.24894800     0.38218000   T T T
     0.74944200     0.25071300     0.09573100   F F F
     0.75246800     0.24938600     0.38260900   T T T
     0.91675100     0.08362400     0.28620800   T T T
     0.08260800     0.41708000     0.19225300   F F F
     0.16866700     0.33400800     0.28551000   T T T
     0.91506300     0.33310900     0.28584400   T T T
     0.41433100     0.58306700     0.28650400   T T T
     0.58190700     0.91526900     0.19241300   F F F
     0.41466700     0.83012200     0.28571400   T T T
     0.83399900     0.91457100     0.19240400   F F F
     0.83565900     0.66444700     0.43793200   T T T
     0.32892832     0.16485632     0.43793200   T T T
     0.33080313     0.66333008     0.43793200   T T T
     0.82904734     0.16895472     0.43793200   T T T
