POSCAR                                  
   1.00000000000000     
    10.1003100000000003    0.0000000000000000    0.0000000000000000
    -5.0501550000000002    8.7471250499999993    0.0000000000000000
     0.0000000000000000    0.0000000000000000   21.2526609099999995
   Ni   Fe
    34    30
Selective dynamics
Direct
  0.9990430000000003  0.0006419999999991  0.0941058599999991   F   F   F
  0.9983328632121097  0.0006070235087789  0.3764100951956244   T   T   T
  0.2484910000000013  0.9986279999999965  0.0956375499999993   F   F   F
  0.2521651489018893  0.0050110818631957  0.3761436168292956   T   T   T
  0.4990250000000032  0.0019270000000020  0.0953884299999999   F   F   F
  0.4990320493550743  0.9967138439398273  0.3786756197971549   T   T   T
  0.9981390000000019  0.2506739999999965  0.0955252099999981   F   F   F
  0.0025023417349302  0.2489932096298934  0.3771471830818028   T   T   T
  0.2492149999999995  0.2488620000000026  0.0947688299999996   F   F   F
  0.2498081683546166  0.2509428581419560  0.3764371524867158   T   T   T
  0.3344680000000011  0.1651460000000000  0.1922246900000033   F   F   F
  0.7489350000000030  0.2527809999999988  0.0967577199999994   F   F   F
  0.7461764244100434  0.2482647330513926  0.3794241114871201   T   T   T
  0.4193438048070305  0.0865015982398588  0.2844765729044835   T   T   T
  0.8320319999999981  0.1658839999999984  0.1940744799999976   F   F   F
  0.6680206793282465  0.0853830041930567  0.2857416240649406   T   T   T
  0.9990859999999984  0.4991079999999997  0.0966229799999994   F   F   F
  0.0065508282397335  0.5026700301617472  0.3797838722036807   T   T   T
  0.7481689999999972  0.4987110000000001  0.0956288200000017   F   F   F
  0.7485182346545193  0.5001061548903974  0.3796786901359697   T   T   T
  0.5831019999999967  0.4132040000000003  0.1926993599999989   F   F   F
  0.4105751005063694  0.3288220869042329  0.2850062382833595   T   T   T
  0.8311970000000031  0.4147589999999965  0.1942904200000015   F   F   F
  0.9159973874966704  0.3328418799616393  0.2868285972356793   T   T   T
  0.9976580000000013  0.7489690000000024  0.0961433599999992   F   F   F
  0.0068928445071293  0.7520234395053890  0.3784535752078885   T   T   T
  0.0819509999999966  0.6657039999999981  0.1933416600000015   F   F   F
  0.7534649999999985  0.7517280000000000  0.0952114800000032   F   F   F
  0.7442452778200086  0.7481202848346430  0.3771143018018784   T   T   T
  0.4214861770964799  0.5817740006450707  0.2831373257737960   T   T   T
  0.9153622164984424  0.5804563476117200  0.2863801317653753   T   T   T
  0.1685742834447029  0.8339759893350988  0.2851238371905950   T   T   T
  0.4156085593367422  0.8320096679606804  0.2851483304266049   T   T   T
  0.9140875164452567  0.8297636875446069  0.2831726866301976   T   T   T
  0.7491819999999976  0.0045379999999966  0.0966960299999968   F   F   F
  0.7462009231643841  0.9925455481193231  0.3726427347285357   T   T   T
  0.0847580000000008  0.1693270000000027  0.1897433800000030   F   F   F
  0.4931899999999985  0.2454400000000021  0.0952609599999974   F   F   F
  0.5065477983943816  0.2610984281078857  0.3746671784035381   T   T   T
  0.1560997238641230  0.0804182171505811  0.2801483958450192   T   T   T
  0.5877610000000004  0.1693130000000025  0.1920465800000031   F   F   F
  0.9211929429532173  0.0787704955812736  0.2834343842514353   T   T   T
  0.2459640000000007  0.4966930000000005  0.0972824500000016   F   F   F
  0.2574167554962349  0.5060163843181519  0.3720413207715277   T   T   T
  0.0743840000000020  0.4150959999999984  0.1933090699999980   F   F   F
  0.5029729999999972  0.4996209999999977  0.0945461900000026   F   F   F
  0.5021730786077720  0.5010710280895878  0.3732694963048716   T   T   T
  0.3391719999999978  0.4151450000000025  0.1928512799999993   F   F   F
  0.1603243778970686  0.3316906070116838  0.2801367546695482   T   T   T
  0.6588569121876200  0.3326114251849915  0.2876789479927693   T   T   T
  0.2449050000000028  0.7526999999999973  0.0970193599999973   F   F   F
  0.2532116735974815  0.7380474083534307  0.3746538200222203   T   T   T
  0.4984030000000033  0.7498829999999970  0.0961899200000005   F   F   F
  0.4996915147019046  0.7480522311231883  0.3743726847423266   T   T   T
  0.3320849999999993  0.6626210000000015  0.1952269499999986   F   F   F
  0.1715568885665655  0.5760007327576765  0.2853775131608196   T   T   T
  0.5857939999999999  0.6682610000000011  0.1927013999999971   F   F   F
  0.8308809999999980  0.6587749999999986  0.1924502399999994   F   F   F
  0.6652354006778495  0.5801585172890453  0.2844875309214181   T   T   T
  0.0823549999999997  0.9142709999999994  0.1905052899999973   F   F   F
  0.3339440000000025  0.9158430000000024  0.1941143499999995   F   F   F
  0.5823159999999987  0.9186520000000016  0.1948893599999977   F   F   F
  0.8341939999999965  0.9144939999999977  0.1923658400000008   F   F   F
  0.6682277407677082  0.8408878992375651  0.2831607267297182   T   T   T
 
  0.00000000E+00  0.00000000E+00  0.00000000E+00
  0.00000000E+00  0.00000000E+00  0.00000000E+00
  0.00000000E+00  0.00000000E+00  0.00000000E+00
  0.00000000E+00  0.00000000E+00  0.00000000E+00
  0.00000000E+00  0.00000000E+00  0.00000000E+00
  0.00000000E+00  0.00000000E+00  0.00000000E+00
  0.00000000E+00  0.00000000E+00  0.00000000E+00
  0.00000000E+00  0.00000000E+00  0.00000000E+00
  0.00000000E+00  0.00000000E+00  0.00000000E+00
  0.00000000E+00  0.00000000E+00  0.00000000E+00
  0.00000000E+00  0.00000000E+00  0.00000000E+00
  0.00000000E+00  0.00000000E+00  0.00000000E+00
  0.00000000E+00  0.00000000E+00  0.00000000E+00
  0.00000000E+00  0.00000000E+00  0.00000000E+00
  0.00000000E+00  0.00000000E+00  0.00000000E+00
  0.00000000E+00  0.00000000E+00  0.00000000E+00
  0.00000000E+00  0.00000000E+00  0.00000000E+00
  0.00000000E+00  0.00000000E+00  0.00000000E+00
  0.00000000E+00  0.00000000E+00  0.00000000E+00
  0.00000000E+00  0.00000000E+00  0.00000000E+00
  0.00000000E+00  0.00000000E+00  0.00000000E+00
  0.00000000E+00  0.00000000E+00  0.00000000E+00
  0.00000000E+00  0.00000000E+00  0.00000000E+00
  0.00000000E+00  0.00000000E+00  0.00000000E+00
  0.00000000E+00  0.00000000E+00  0.00000000E+00
  0.00000000E+00  0.00000000E+00  0.00000000E+00
  0.00000000E+00  0.00000000E+00  0.00000000E+00
  0.00000000E+00  0.00000000E+00  0.00000000E+00
  0.00000000E+00  0.00000000E+00  0.00000000E+00
  0.00000000E+00  0.00000000E+00  0.00000000E+00
  0.00000000E+00  0.00000000E+00  0.00000000E+00
  0.00000000E+00  0.00000000E+00  0.00000000E+00
  0.00000000E+00  0.00000000E+00  0.00000000E+00
  0.00000000E+00  0.00000000E+00  0.00000000E+00
  0.00000000E+00  0.00000000E+00  0.00000000E+00
  0.00000000E+00  0.00000000E+00  0.00000000E+00
  0.00000000E+00  0.00000000E+00  0.00000000E+00
  0.00000000E+00  0.00000000E+00  0.00000000E+00
  0.00000000E+00  0.00000000E+00  0.00000000E+00
  0.00000000E+00  0.00000000E+00  0.00000000E+00
  0.00000000E+00  0.00000000E+00  0.00000000E+00
  0.00000000E+00  0.00000000E+00  0.00000000E+00
  0.00000000E+00  0.00000000E+00  0.00000000E+00
  0.00000000E+00  0.00000000E+00  0.00000000E+00
  0.00000000E+00  0.00000000E+00  0.00000000E+00
  0.00000000E+00  0.00000000E+00  0.00000000E+00
  0.00000000E+00  0.00000000E+00  0.00000000E+00
  0.00000000E+00  0.00000000E+00  0.00000000E+00
  0.00000000E+00  0.00000000E+00  0.00000000E+00
  0.00000000E+00  0.00000000E+00  0.00000000E+00
  0.00000000E+00  0.00000000E+00  0.00000000E+00
  0.00000000E+00  0.00000000E+00  0.00000000E+00
  0.00000000E+00  0.00000000E+00  0.00000000E+00
  0.00000000E+00  0.00000000E+00  0.00000000E+00
  0.00000000E+00  0.00000000E+00  0.00000000E+00
  0.00000000E+00  0.00000000E+00  0.00000000E+00
  0.00000000E+00  0.00000000E+00  0.00000000E+00
  0.00000000E+00  0.00000000E+00  0.00000000E+00
  0.00000000E+00  0.00000000E+00  0.00000000E+00
  0.00000000E+00  0.00000000E+00  0.00000000E+00
  0.00000000E+00  0.00000000E+00  0.00000000E+00
  0.00000000E+00  0.00000000E+00  0.00000000E+00
  0.00000000E+00  0.00000000E+00  0.00000000E+00
  0.00000000E+00  0.00000000E+00  0.00000000E+00
