POSCAR                                  
   3.54500000000000     
     2.0000000000000000    0.0000000000000000    0.0000000000000000
     0.0000000000000000    2.0000000000000000    0.0000000000000000
     0.0000000000000000    0.0000000000000000    2.0000000000000000
   Ni   Fe
    24     8
Direct
  0.0026840073798766  0.0000132309805778  0.5022857580661721
  0.0020408042685389  0.2522147287323051  0.7533141265285437
  0.0009090768106716  0.2472632587342574  0.2461888791664322
  0.0012282907764884  0.5003823084585548  0.5018329460663438
  0.0054952155960848  0.7500413181963737  0.7530332550336922
  0.2534394898675814  0.0015420782432898  0.2466501210846275
  0.2518614587471504  0.2498412183424819  0.5034616042942517
  0.4981979232215110  0.0010955726218427  0.4984857097491897
  0.4995476714570941  0.2489866651347654  0.7543186706761986
  0.7529169015517709  0.0019263403480494  0.7526876829134750
  0.0010115090325087  0.4962112176867706  0.9993778697136904
  0.0001214660508708  0.7540734118328061  0.2475092691890879
  0.2512397515154916  0.4987627580105780  0.2484289024813364
  0.2524706450770609  0.7503439624050330  0.5003686032517578
  0.4985845928409418  0.0003349622115962  0.0001848460123668
  0.4975485471915420  0.4986153768794850  0.4977271433861290
  0.4954208053606521  0.7497272184469352  0.7511143070406305
  0.7459661235335346  0.0010908618427834  0.2466134951651497
  0.7482568710440844  0.2497650321136504  0.4981737801983428
  0.7463493521999425  0.4983043136420946  0.7538542050980013
  0.2514026037908721  0.7500701059758157  0.9993979883378259
  0.7471660749551248  0.4988932659362320  0.2470274418211389
  0.7474445817317275  0.7503346313806674  0.4978274547567452
  0.7487321679819985  0.7502468221451792  0.0005013025531255
  0.2445168315904880  0.0055228015848030  0.7588275877190114
  0.0042825385080292  0.0082390435387154  0.9960070615487027
  0.2561183548679153  0.4949352775415505  0.7597580777210950
  0.2548793579820696  0.2491954482440590  0.9942451095541855
  0.4995373060011801  0.2540840311852008  0.2348416877815112
  0.4946124361785351  0.4964467306113818  0.0056566912000591
  0.4996667454433279  0.7430852953386591  0.2453690527317676
  0.7463504974453343  0.2484107116535128  0.0049293691594201
 
  0.00000000E+00  0.00000000E+00  0.00000000E+00
  0.00000000E+00  0.00000000E+00  0.00000000E+00
  0.00000000E+00  0.00000000E+00  0.00000000E+00
  0.00000000E+00  0.00000000E+00  0.00000000E+00
  0.00000000E+00  0.00000000E+00  0.00000000E+00
  0.00000000E+00  0.00000000E+00  0.00000000E+00
  0.00000000E+00  0.00000000E+00  0.00000000E+00
  0.00000000E+00  0.00000000E+00  0.00000000E+00
  0.00000000E+00  0.00000000E+00  0.00000000E+00
  0.00000000E+00  0.00000000E+00  0.00000000E+00
  0.00000000E+00  0.00000000E+00  0.00000000E+00
  0.00000000E+00  0.00000000E+00  0.00000000E+00
  0.00000000E+00  0.00000000E+00  0.00000000E+00
  0.00000000E+00  0.00000000E+00  0.00000000E+00
  0.00000000E+00  0.00000000E+00  0.00000000E+00
  0.00000000E+00  0.00000000E+00  0.00000000E+00
  0.00000000E+00  0.00000000E+00  0.00000000E+00
  0.00000000E+00  0.00000000E+00  0.00000000E+00
  0.00000000E+00  0.00000000E+00  0.00000000E+00
  0.00000000E+00  0.00000000E+00  0.00000000E+00
  0.00000000E+00  0.00000000E+00  0.00000000E+00
  0.00000000E+00  0.00000000E+00  0.00000000E+00
  0.00000000E+00  0.00000000E+00  0.00000000E+00
  0.00000000E+00  0.00000000E+00  0.00000000E+00
  0.00000000E+00  0.00000000E+00  0.00000000E+00
  0.00000000E+00  0.00000000E+00  0.00000000E+00
  0.00000000E+00  0.00000000E+00  0.00000000E+00
  0.00000000E+00  0.00000000E+00  0.00000000E+00
  0.00000000E+00  0.00000000E+00  0.00000000E+00
  0.00000000E+00  0.00000000E+00  0.00000000E+00
  0.00000000E+00  0.00000000E+00  0.00000000E+00
  0.00000000E+00  0.00000000E+00  0.00000000E+00
