POSCAR                                  
   1.00000000000000     
    10.1116299999999999    0.0000000000000000    0.0000000000000000
    -5.0558149999999999    8.7569284500000002    0.0000000000000000
     0.0000000000000000    0.0000000000000000   21.2664299999999997
   Fe   Ni   O    H 
    48    16     5     1
Selective dynamics
Direct
  0.0019470000000013  0.9992000000000019  0.0968289999999996   F   F   F
  0.0023951956674821  0.9974336009493925  0.3811046995518979   T   T   T
  0.4988060000000019  0.9964760000000012  0.0961449999999999   F   F   F
  0.5040841749854081  0.9926076614599708  0.3798719998192368   T   T   T
  0.7431600000000032  0.9964590000000015  0.0944310000000002   F   F   F
  0.7557388645710930  0.9955589142199983  0.3854849460438956   T   T   T
  0.2491360000000000  0.2532259999999980  0.0968099999999978   F   F   F
  0.2519796772717200  0.2448988724311718  0.3822418971349251   T   T   T
  0.0887320000000003  0.1614939999999976  0.1905920000000023   F   F   F
  0.3296259999999975  0.1660979999999981  0.1950629999999975   F   F   F
  0.1648450718709569  0.0788489069484797  0.2889232727604210   T   T   T
  0.5833299999999966  0.1655030000000011  0.1944370000000006   F   F   F
  0.4149529433574415  0.0827652691626284  0.2919905116535304   T   T   T
  0.8265150000000006  0.1665100000000024  0.1932630000000017   F   F   F
  0.6683691556008782  0.0815684919735347  0.2896734146961748   T   T   T
  0.0032080000000008  0.5109089999999981  0.0945129999999992   F   F   F
  0.0050118280086480  0.5004488578341579  0.3767075765487036   T   T   T
  0.2558689999999970  0.5057770000000019  0.0973460000000017   F   F   F
  0.2498783347980122  0.4889379591946437  0.3852815114929840   T   T   T
  0.4996020000000030  0.5030489999999972  0.0975409999999997   F   F   F
  0.5039705509698891  0.4961718247448559  0.3755748301754025   T   T   T
  0.3385990000000021  0.4158370000000033  0.1893930000000026   F   F   F
  0.7567909999999998  0.5080430000000007  0.0963089999999980   F   F   F
  0.7524472133669065  0.4946262255384042  0.3942231425656928   T   T   T
  0.5863360000000029  0.4222940000000008  0.1942359999999965   F   F   F
  0.4169197790515824  0.3348774853391987  0.2846478984664742   T   T   T
  0.8267710000000008  0.4167619999999985  0.1919949999999986   F   F   F
  0.6700101665748477  0.3340235921260444  0.2939333668052981   T   T   T
  0.9918059999999969  0.7470280000000002  0.0957130000000035   F   F   F
  0.0095745283975219  0.7540787845533927  0.3883073468531535   T   T   T
  0.2510460000000023  0.7456389999999971  0.0970360000000028   F   F   F
  0.2534948988544485  0.7489312693949799  0.3888081035086586   T   T   T
  0.0860460000000032  0.6708690000000033  0.1922020000000018   F   F   F
  0.5015369999999990  0.7490570000000005  0.0975290000000015   F   F   F
  0.5056236134794929  0.7463216525114547  0.3854402697645583   T   T   T
  0.3300589999999985  0.6613559999999978  0.1901859999999971   F   F   F
  0.1698735000198681  0.5783437326589080  0.2857265556188935   T   T   T
  0.7477749999999972  0.7486310000000032  0.0940450000000013   F   F   F
  0.7512215778840456  0.7514707121590547  0.3876022903577621   T   T   T
  0.5800819999999973  0.6609630000000024  0.1915270000000007   F   F   F
  0.8321370000000030  0.6619949999999974  0.1930350000000018   F   F   F
  0.6727812197063443  0.5842616066598438  0.2879079143361523   T   T   T
  0.9174001269578369  0.5824631686959023  0.2891485500291395   T   T   T
  0.0860360000000000  0.9163550000000029  0.1937119999999979   F   F   F
  0.3274299999999997  0.9193220000000011  0.1929370000000006   F   F   F
  0.1669351352736328  0.8288914108550003  0.2919089165950908   T   T   T
  0.6651696418520956  0.8304700182790441  0.2880235257016537   T   T   T
  0.9184620184092864  0.8339524930389501  0.2863488552938946   T   T   T
  0.2491649999999979  0.9981310000000008  0.0955980000000025   F   F   F
  0.2539539489459131  0.9941554508086128  0.3886250067614725   T   T   T
  0.0012970000000010  0.2497419999999977  0.0965860000000021   F   F   F
  0.0105491836894913  0.2509597743691927  0.3814947510371454   T   T   T
  0.4993309999999980  0.2516269999999992  0.0953730000000022   F   F   F
  0.4994332314994949  0.2452329957214090  0.3898116172527111   T   T   T
  0.7494420000000019  0.2507129999999975  0.0957310000000007   F   F   F
  0.7562501993632793  0.2440677134006464  0.3890227844088727   T   T   T
  0.9202011473183518  0.0840526694563621  0.2860922996100257   T   T   T
  0.0826080000000005  0.4170799999999986  0.1922530000000009   F   F   F
  0.1695854454205090  0.3317973237350813  0.2860934352850037   T   T   T
  0.9147726218489893  0.3292769476872621  0.2865847304685261   T   T   T
  0.4161196964123448  0.5808854539384924  0.2859809042599153   T   T   T
  0.5819070000000011  0.9152690000000021  0.1924130000000019   F   F   F
  0.4157500503698088  0.8276396212151056  0.2863056176487433   T   T   T
  0.8339989999999986  0.9145710000000022  0.1924040000000034   F   F   F
  0.8417433627426689  0.6776239155833181  0.4415536360524825   T   T   T
  0.3158284349495020  0.1634083682559719  0.4413421062536429   T   T   T
  0.3366665885690594  0.6576054756336802  0.4391896590663507   T   T   T
  0.8509696112414034  0.1536313524431634  0.4393759418837675   T   T   T
  0.6713330043388552  0.3262353873835977  0.4547002150608179   T   T   T
  0.6748200201465551  0.3259987793259640  0.5004030995241209   T   T   T
 
  0.00000000E+00  0.00000000E+00  0.00000000E+00
  0.00000000E+00  0.00000000E+00  0.00000000E+00
  0.00000000E+00  0.00000000E+00  0.00000000E+00
  0.00000000E+00  0.00000000E+00  0.00000000E+00
  0.00000000E+00  0.00000000E+00  0.00000000E+00
  0.00000000E+00  0.00000000E+00  0.00000000E+00
  0.00000000E+00  0.00000000E+00  0.00000000E+00
  0.00000000E+00  0.00000000E+00  0.00000000E+00
  0.00000000E+00  0.00000000E+00  0.00000000E+00
  0.00000000E+00  0.00000000E+00  0.00000000E+00
  0.00000000E+00  0.00000000E+00  0.00000000E+00
  0.00000000E+00  0.00000000E+00  0.00000000E+00
  0.00000000E+00  0.00000000E+00  0.00000000E+00
  0.00000000E+00  0.00000000E+00  0.00000000E+00
  0.00000000E+00  0.00000000E+00  0.00000000E+00
  0.00000000E+00  0.00000000E+00  0.00000000E+00
  0.00000000E+00  0.00000000E+00  0.00000000E+00
  0.00000000E+00  0.00000000E+00  0.00000000E+00
  0.00000000E+00  0.00000000E+00  0.00000000E+00
  0.00000000E+00  0.00000000E+00  0.00000000E+00
  0.00000000E+00  0.00000000E+00  0.00000000E+00
  0.00000000E+00  0.00000000E+00  0.00000000E+00
  0.00000000E+00  0.00000000E+00  0.00000000E+00
  0.00000000E+00  0.00000000E+00  0.00000000E+00
  0.00000000E+00  0.00000000E+00  0.00000000E+00
  0.00000000E+00  0.00000000E+00  0.00000000E+00
  0.00000000E+00  0.00000000E+00  0.00000000E+00
  0.00000000E+00  0.00000000E+00  0.00000000E+00
  0.00000000E+00  0.00000000E+00  0.00000000E+00
  0.00000000E+00  0.00000000E+00  0.00000000E+00
  0.00000000E+00  0.00000000E+00  0.00000000E+00
  0.00000000E+00  0.00000000E+00  0.00000000E+00
  0.00000000E+00  0.00000000E+00  0.00000000E+00
  0.00000000E+00  0.00000000E+00  0.00000000E+00
  0.00000000E+00  0.00000000E+00  0.00000000E+00
  0.00000000E+00  0.00000000E+00  0.00000000E+00
  0.00000000E+00  0.00000000E+00  0.00000000E+00
  0.00000000E+00  0.00000000E+00  0.00000000E+00
  0.00000000E+00  0.00000000E+00  0.00000000E+00
  0.00000000E+00  0.00000000E+00  0.00000000E+00
  0.00000000E+00  0.00000000E+00  0.00000000E+00
  0.00000000E+00  0.00000000E+00  0.00000000E+00
  0.00000000E+00  0.00000000E+00  0.00000000E+00
  0.00000000E+00  0.00000000E+00  0.00000000E+00
  0.00000000E+00  0.00000000E+00  0.00000000E+00
  0.00000000E+00  0.00000000E+00  0.00000000E+00
  0.00000000E+00  0.00000000E+00  0.00000000E+00
  0.00000000E+00  0.00000000E+00  0.00000000E+00
  0.00000000E+00  0.00000000E+00  0.00000000E+00
  0.00000000E+00  0.00000000E+00  0.00000000E+00
  0.00000000E+00  0.00000000E+00  0.00000000E+00
  0.00000000E+00  0.00000000E+00  0.00000000E+00
  0.00000000E+00  0.00000000E+00  0.00000000E+00
  0.00000000E+00  0.00000000E+00  0.00000000E+00
  0.00000000E+00  0.00000000E+00  0.00000000E+00
  0.00000000E+00  0.00000000E+00  0.00000000E+00
  0.00000000E+00  0.00000000E+00  0.00000000E+00
  0.00000000E+00  0.00000000E+00  0.00000000E+00
  0.00000000E+00  0.00000000E+00  0.00000000E+00
  0.00000000E+00  0.00000000E+00  0.00000000E+00
  0.00000000E+00  0.00000000E+00  0.00000000E+00
  0.00000000E+00  0.00000000E+00  0.00000000E+00
  0.00000000E+00  0.00000000E+00  0.00000000E+00
  0.00000000E+00  0.00000000E+00  0.00000000E+00
  0.00000000E+00  0.00000000E+00  0.00000000E+00
  0.00000000E+00  0.00000000E+00  0.00000000E+00
  0.00000000E+00  0.00000000E+00  0.00000000E+00
  0.00000000E+00  0.00000000E+00  0.00000000E+00
  0.00000000E+00  0.00000000E+00  0.00000000E+00
  0.00000000E+00  0.00000000E+00  0.00000000E+00
