POSCAR                                  
   1.00000000000000     
     9.9295000000000009    0.0000000000000000    0.0000000000000000
     3.3098332300000002    9.3616224199999998    0.0000000000000000
     0.0000000000000000    0.0000000000000000   21.0805499999999988
   Fe   O    H 
    64     5     1
Selective dynamics
Direct
  0.0873890000000017  0.1626109999999983  0.0948739999999972   F   F   F
  0.0880588443138279  0.1604928224397568  0.2849545818088330   T   T   T
  0.2123890000000017  0.0376109999999983  0.1910219999999967   F   F   F
  0.2055024956292257  0.0306006539294472  0.3806492982786835   T   T   T
  0.3373890000000017  0.1626109999999983  0.0948739999999972   F   F   F
  0.3375457752239015  0.1626870578961359  0.2846720422314206   T   T   T
  0.4623890000000017  0.0376109999999983  0.1910219999999967   F   F   F
  0.4595497975995357  0.0356145996300654  0.3795004283452457   T   T   T
  0.5873890000000017  0.1626109999999983  0.0948739999999972   F   F   F
  0.5875113164624253  0.1622609488460256  0.2855392523366334   T   T   T
  0.7123890000000017  0.0376109999999983  0.1910219999999967   F   F   F
  0.7068172393227243  0.0288568479767193  0.3787628773660501   T   T   T
  0.8373890000000017  0.1626109999999983  0.0948739999999972   F   F   F
  0.8376950299644790  0.1627401056610580  0.2849139125849263   T   T   T
  0.9623890000000017  0.0376109999999983  0.1910219999999967   F   F   F
  0.9613439417321175  0.0327049434430648  0.3796771504392709   T   T   T
  0.0873890000000017  0.4126109999999983  0.0948739999999972   F   F   F
  0.0884605622474979  0.4116851548208658  0.2853028926128474   T   T   T
  0.2123890000000017  0.2876109999999983  0.1910219999999967   F   F   F
  0.2105792387057335  0.2846689922764298  0.3795138352798020   T   T   T
  0.3373890000000017  0.4126109999999983  0.0948739999999972   F   F   F
  0.3371158617209957  0.4126858399152837  0.2855157423049732   T   T   T
  0.4623890000000017  0.2876109999999983  0.1910219999999967   F   F   F
  0.4604954658673748  0.2856450605679299  0.3781298262991939   T   T   T
  0.5873890000000017  0.4126109999999983  0.0948739999999972   F   F   F
  0.5879897277187993  0.4131700823442728  0.2867045816958296   T   T   T
  0.7123890000000017  0.2876109999999983  0.1910219999999967   F   F   F
  0.7170843635528996  0.2828806074250565  0.3806521791662121   T   T   T
  0.8373890000000017  0.4126109999999983  0.0948739999999972   F   F   F
  0.8367616446722295  0.4130036828847921  0.2848303132167445   T   T   T
  0.9623890000000017  0.2876109999999983  0.1910219999999967   F   F   F
  0.9636714178159593  0.2876492861405922  0.3748033686984655   T   T   T
  0.0873890000000017  0.6626109999999983  0.0948739999999972   F   F   F
  0.0875037657880924  0.6615785261056999  0.2848375564354910   T   T   T
  0.2123890000000017  0.5376109999999983  0.1910219999999967   F   F   F
  0.2036874181178021  0.5319889878415438  0.3787342526913235   T   T   T
  0.3373890000000017  0.6626109999999983  0.0948739999999972   F   F   F
  0.3375349858777739  0.6628599040494265  0.2848995442452278   T   T   T
  0.4623890000000017  0.5376109999999983  0.1910219999999967   F   F   F
  0.4576349687494172  0.5421820015566894  0.3806487629127489   T   T   T
  0.5873890000000017  0.6626109999999983  0.0948739999999972   F   F   F
  0.5877691554504381  0.6619333380149470  0.2848375686871947   T   T   T
  0.7123890000000017  0.5376109999999983  0.1910219999999967   F   F   F
  0.7101976015585123  0.5355108408105806  0.3792216075257429   T   T   T
  0.8373890000000017  0.6626109999999983  0.0948739999999972   F   F   F
  0.8373424354172556  0.6625313158395798  0.2841878791748087   T   T   T
  0.9623890000000017  0.5376109999999983  0.1910219999999967   F   F   F
  0.9627526599587455  0.5331695542053936  0.3785898658900351   T   T   T
  0.0873890000000017  0.9126109999999983  0.0948739999999972   F   F   F
  0.0871801210212340  0.9123570268166716  0.2856694056890348   T   T   T
  0.2123890000000017  0.7876109999999983  0.1910219999999967   F   F   F
  0.2075659009785085  0.7864032532072827  0.3796891577144876   T   T   T
  0.3373890000000017  0.9126109999999983  0.0948739999999972   F   F   F
  0.3353105298810348  0.9131995291314823  0.2849453804450519   T   T   T
  0.4623890000000017  0.7876109999999983  0.1910219999999967   F   F   F
  0.4623390673001495  0.7887757489307390  0.3748225663073796   T   T   T
  0.5873890000000017  0.9126109999999983  0.0948739999999972   F   F   F
  0.5864888068680543  0.9135739481925995  0.2853045098803122   T   T   T
  0.7123890000000017  0.7876109999999983  0.1910219999999967   F   F   F
  0.7078977467781087  0.7879745295678191  0.3785789917842948   T   T   T
  0.8373890000000017  0.9126109999999983  0.0948739999999972   F   F   F
  0.8363791950210313  0.9127046962059353  0.2848497894690283   T   T   T
  0.9623890000000017  0.7876109999999983  0.1910219999999967   F   F   F
  0.9617751576348041  0.7870067615458964  0.3760097814909287   T   T   T
  0.3015531528906763  0.1266215679480425  0.4310669889798220   T   T   T
  0.8035009646075366  0.1177155404333163  0.4309638232673336   T   T   T
  0.8101851595275065  0.6354292278045293  0.4299939156331192   T   T   T
  0.2923803123000539  0.6284827360446030  0.4309398284378645   T   T   T
  0.5540519165925488  0.3791620830607059  0.4421828559054575   T   T   T
  0.5502693742323856  0.3751585169584573  0.4883236894207243   T   T   T
 
  0.00000000E+00  0.00000000E+00  0.00000000E+00
  0.00000000E+00  0.00000000E+00  0.00000000E+00
  0.00000000E+00  0.00000000E+00  0.00000000E+00
  0.00000000E+00  0.00000000E+00  0.00000000E+00
  0.00000000E+00  0.00000000E+00  0.00000000E+00
  0.00000000E+00  0.00000000E+00  0.00000000E+00
  0.00000000E+00  0.00000000E+00  0.00000000E+00
  0.00000000E+00  0.00000000E+00  0.00000000E+00
  0.00000000E+00  0.00000000E+00  0.00000000E+00
  0.00000000E+00  0.00000000E+00  0.00000000E+00
  0.00000000E+00  0.00000000E+00  0.00000000E+00
  0.00000000E+00  0.00000000E+00  0.00000000E+00
  0.00000000E+00  0.00000000E+00  0.00000000E+00
  0.00000000E+00  0.00000000E+00  0.00000000E+00
  0.00000000E+00  0.00000000E+00  0.00000000E+00
  0.00000000E+00  0.00000000E+00  0.00000000E+00
  0.00000000E+00  0.00000000E+00  0.00000000E+00
  0.00000000E+00  0.00000000E+00  0.00000000E+00
  0.00000000E+00  0.00000000E+00  0.00000000E+00
  0.00000000E+00  0.00000000E+00  0.00000000E+00
  0.00000000E+00  0.00000000E+00  0.00000000E+00
  0.00000000E+00  0.00000000E+00  0.00000000E+00
  0.00000000E+00  0.00000000E+00  0.00000000E+00
  0.00000000E+00  0.00000000E+00  0.00000000E+00
  0.00000000E+00  0.00000000E+00  0.00000000E+00
  0.00000000E+00  0.00000000E+00  0.00000000E+00
  0.00000000E+00  0.00000000E+00  0.00000000E+00
  0.00000000E+00  0.00000000E+00  0.00000000E+00
  0.00000000E+00  0.00000000E+00  0.00000000E+00
  0.00000000E+00  0.00000000E+00  0.00000000E+00
  0.00000000E+00  0.00000000E+00  0.00000000E+00
  0.00000000E+00  0.00000000E+00  0.00000000E+00
  0.00000000E+00  0.00000000E+00  0.00000000E+00
  0.00000000E+00  0.00000000E+00  0.00000000E+00
  0.00000000E+00  0.00000000E+00  0.00000000E+00
  0.00000000E+00  0.00000000E+00  0.00000000E+00
  0.00000000E+00  0.00000000E+00  0.00000000E+00
  0.00000000E+00  0.00000000E+00  0.00000000E+00
  0.00000000E+00  0.00000000E+00  0.00000000E+00
  0.00000000E+00  0.00000000E+00  0.00000000E+00
  0.00000000E+00  0.00000000E+00  0.00000000E+00
  0.00000000E+00  0.00000000E+00  0.00000000E+00
  0.00000000E+00  0.00000000E+00  0.00000000E+00
  0.00000000E+00  0.00000000E+00  0.00000000E+00
  0.00000000E+00  0.00000000E+00  0.00000000E+00
  0.00000000E+00  0.00000000E+00  0.00000000E+00
  0.00000000E+00  0.00000000E+00  0.00000000E+00
  0.00000000E+00  0.00000000E+00  0.00000000E+00
  0.00000000E+00  0.00000000E+00  0.00000000E+00
  0.00000000E+00  0.00000000E+00  0.00000000E+00
  0.00000000E+00  0.00000000E+00  0.00000000E+00
  0.00000000E+00  0.00000000E+00  0.00000000E+00
  0.00000000E+00  0.00000000E+00  0.00000000E+00
  0.00000000E+00  0.00000000E+00  0.00000000E+00
  0.00000000E+00  0.00000000E+00  0.00000000E+00
  0.00000000E+00  0.00000000E+00  0.00000000E+00
  0.00000000E+00  0.00000000E+00  0.00000000E+00
  0.00000000E+00  0.00000000E+00  0.00000000E+00
  0.00000000E+00  0.00000000E+00  0.00000000E+00
  0.00000000E+00  0.00000000E+00  0.00000000E+00
  0.00000000E+00  0.00000000E+00  0.00000000E+00
  0.00000000E+00  0.00000000E+00  0.00000000E+00
  0.00000000E+00  0.00000000E+00  0.00000000E+00
  0.00000000E+00  0.00000000E+00  0.00000000E+00
  0.00000000E+00  0.00000000E+00  0.00000000E+00
  0.00000000E+00  0.00000000E+00  0.00000000E+00
  0.00000000E+00  0.00000000E+00  0.00000000E+00
  0.00000000E+00  0.00000000E+00  0.00000000E+00
  0.00000000E+00  0.00000000E+00  0.00000000E+00
  0.00000000E+00  0.00000000E+00  0.00000000E+00
