POSCAR                                  
   1.00000000000000     
    10.1003100000000003    0.0000000000000000    0.0000000000000000
    -5.0501550000000002    8.7471250499999993    0.0000000000000000
     0.0000000000000000    0.0000000000000000   21.2537999999999982
   Ni   Fe   O    H 
    33    31     6     1
Selective dynamics
Direct
  0.9990430000000003  0.0006419999999991  0.1905229999999989   F   F   F
  0.2484910000000013  0.9986279999999965  0.1920550000000034   F   F   F
  0.4990250000000032  0.0019270000000020  0.1918059999999997   F   F   F
  0.9981390000000019  0.2506739999999965  0.1919419999999974   F   F   F
  0.2492149999999995  0.2488620000000026  0.1911860000000019   F   F   F
  0.3333188850296480  0.1644713639825994  0.2867639471320373   F   F   F
  0.7489350000000030  0.2527809999999988  0.1931749999999965   F   F   F
  0.4183749999999975  0.0839399999999983  0.0941180000000017   F   F   F
  0.4175760507911050  0.0853519233529596  0.3822689923621851   F   F   F
  0.8317196392106894  0.1653137829881643  0.2893632125058332   F   F   F
  0.6679699999999968  0.0847229999999968  0.0956929999999971   F   F   F
  0.6664643230071761  0.0850417215023285  0.3826291309397831   F   F   F
  0.9990859999999984  0.4991079999999997  0.1930400000000034   F   F   F
  0.7481689999999972  0.4987110000000001  0.1920459999999977   F   F   F
  0.5837511813608103  0.4187826974990330  0.2866100507605793   F   F   F
  0.4196099999999987  0.3333709999999996  0.0941400000000030   F   F   F
  0.4158959863045979  0.3285107016869304  0.3806560568195039   F   F   F
  0.8302115226134603  0.4158838643533684  0.2873364307435793   F   F   F
  0.9185590000000019  0.3350160000000031  0.0956869999999981   F   F   F
  0.9133756350908229  0.3306205244069105  0.3843404572468501   F   F   F
  0.9976580000000013  0.7489690000000024  0.1925600000000003   F   F   F
  0.0814237915793399  0.6651731722873677  0.2868922157890310   F   F   F
  0.7534649999999985  0.7517280000000000  0.1916289999999989   F   F   F
  0.4173729999999978  0.5835239999999970  0.0962340000000026   F   F   F
  0.4102663508000362  0.5811998953937731  0.3816059459164194   F   F   F
  0.9155080000000027  0.5846190000000036  0.0954290000000029   F   F   F
  0.9089213526210571  0.5842064677273200  0.3836265379303754   F   F   F
  0.1668289999999999  0.8349079999999987  0.0945669999999978   F   F   F
  0.1667229814961431  0.8359303846823138  0.3768738007884878   F   F   F
  0.4171529999999990  0.8333879999999994  0.0967929999999981   F   F   F
  0.4141491560678006  0.8304629246887743  0.3845959703787756   F   F   F
  0.9198510000000013  0.8326369999999983  0.0953980000000030   F   F   F
  0.9187895932804508  0.8354210670459281  0.3795313666271696   F   F   F
  0.7491819999999976  0.0045379999999966  0.1931129999999968   F   F   F
  0.0767385214830441  0.1602493547099684  0.2846591583370994   F   F   F
  0.4931899999999985  0.2454400000000021  0.1916780000000031   F   F   F
  0.1713960000000014  0.0833930000000009  0.0953590000000020   F   F   F
  0.1779518594222864  0.0860947580905886  0.3822914397639678   F   F   F
  0.5864741684753767  0.1658869668229741  0.2855083118244437   F   F   F
  0.9169309999999982  0.0858149999999966  0.0941010000000020   F   F   F
  0.9135991548617213  0.0861478980491839  0.3839556970488616   F   F   F
  0.2459640000000007  0.4966930000000005  0.1936990000000023   F   F   F
  0.0764916176905217  0.4159426378946662  0.2875476386433888   F   F   F
  0.5029729999999972  0.4996209999999977  0.1909629999999964   F   F   F
  0.3356194970515176  0.4154918354883392  0.2854145672733139   F   F   F
  0.1708140000000000  0.3372420000000034  0.0955050000000028   F   F   F
  0.1648025974057745  0.3313919182420761  0.3776931518182636   F   F   F
  0.6726469999999978  0.3359809999999968  0.0960030000000032   F   F   F
  0.6667208080971108  0.3353295265789242  0.3784774308857237   F   F   F
  0.2449050000000028  0.7526999999999973  0.1934359999999984   F   F   F
  0.4984030000000033  0.7498829999999970  0.1926070000000024   F   F   F
  0.3436529702005231  0.6710264559678194  0.2858789248628923   F   F   F
  0.1647060000000025  0.5862709999999964  0.0973309999999969   F   F   F
  0.1702760850908405  0.5893085568864862  0.3840634529849680   F   F   F
  0.5836396368049890  0.6729852314715004  0.2854727709230005   F   F   F
  0.8267575715240270  0.6603561994154532  0.2888352401737322   F   F   F
  0.6676250000000010  0.5842620000000025  0.0951990000000009   F   F   F
  0.6670306745895758  0.5906023705005552  0.3920659951190970   F   F   F
  0.0814264811186263  0.9152468118913504  0.2844584727455555   F   F   F
  0.3350847996399935  0.9148633836771154  0.2879354751336578   F   F   F
  0.5809950013520577  0.9064849894580362  0.2857326251456982   F   F   F
  0.8212595342746027  0.9102429720433705  0.2866070273271646   F   F   F
  0.6684139999999985  0.8335110000000014  0.0965980000000002   F   F   F
  0.6656102425931181  0.8333092015096994  0.3837307145513336   F   F   F
  0.0118621584469594  0.0127166237384557  0.4341901811592450   F   F   F
  0.4814851378183747  0.4864453241456914  0.4377082379830810   F   F   F
  0.0038406912462889  0.5037652101206760  0.4355680912795563   F   F   F
  0.4994593446852065  0.0023497916339821  0.4358120247487491   F   F   F
  0.6776516157873615  0.8352255796623851  0.4690879062069513   T   T   T
  0.7212013368831336  0.7200541823336764  0.4886156055071424   T   T   T
  0.6211885211515806  0.6390185535562694  0.5047254528596881   T   T   T
 
  0.00000000E+00  0.00000000E+00  0.00000000E+00
  0.00000000E+00  0.00000000E+00  0.00000000E+00
  0.00000000E+00  0.00000000E+00  0.00000000E+00
  0.00000000E+00  0.00000000E+00  0.00000000E+00
  0.00000000E+00  0.00000000E+00  0.00000000E+00
  0.00000000E+00  0.00000000E+00  0.00000000E+00
  0.00000000E+00  0.00000000E+00  0.00000000E+00
  0.00000000E+00  0.00000000E+00  0.00000000E+00
  0.00000000E+00  0.00000000E+00  0.00000000E+00
  0.00000000E+00  0.00000000E+00  0.00000000E+00
  0.00000000E+00  0.00000000E+00  0.00000000E+00
  0.00000000E+00  0.00000000E+00  0.00000000E+00
  0.00000000E+00  0.00000000E+00  0.00000000E+00
  0.00000000E+00  0.00000000E+00  0.00000000E+00
  0.00000000E+00  0.00000000E+00  0.00000000E+00
  0.00000000E+00  0.00000000E+00  0.00000000E+00
  0.00000000E+00  0.00000000E+00  0.00000000E+00
  0.00000000E+00  0.00000000E+00  0.00000000E+00
  0.00000000E+00  0.00000000E+00  0.00000000E+00
  0.00000000E+00  0.00000000E+00  0.00000000E+00
  0.00000000E+00  0.00000000E+00  0.00000000E+00
  0.00000000E+00  0.00000000E+00  0.00000000E+00
  0.00000000E+00  0.00000000E+00  0.00000000E+00
  0.00000000E+00  0.00000000E+00  0.00000000E+00
  0.00000000E+00  0.00000000E+00  0.00000000E+00
  0.00000000E+00  0.00000000E+00  0.00000000E+00
  0.00000000E+00  0.00000000E+00  0.00000000E+00
  0.00000000E+00  0.00000000E+00  0.00000000E+00
  0.00000000E+00  0.00000000E+00  0.00000000E+00
  0.00000000E+00  0.00000000E+00  0.00000000E+00
  0.00000000E+00  0.00000000E+00  0.00000000E+00
  0.00000000E+00  0.00000000E+00  0.00000000E+00
  0.00000000E+00  0.00000000E+00  0.00000000E+00
  0.00000000E+00  0.00000000E+00  0.00000000E+00
  0.00000000E+00  0.00000000E+00  0.00000000E+00
  0.00000000E+00  0.00000000E+00  0.00000000E+00
  0.00000000E+00  0.00000000E+00  0.00000000E+00
  0.00000000E+00  0.00000000E+00  0.00000000E+00
  0.00000000E+00  0.00000000E+00  0.00000000E+00
  0.00000000E+00  0.00000000E+00  0.00000000E+00
  0.00000000E+00  0.00000000E+00  0.00000000E+00
  0.00000000E+00  0.00000000E+00  0.00000000E+00
  0.00000000E+00  0.00000000E+00  0.00000000E+00
  0.00000000E+00  0.00000000E+00  0.00000000E+00
  0.00000000E+00  0.00000000E+00  0.00000000E+00
  0.00000000E+00  0.00000000E+00  0.00000000E+00
  0.00000000E+00  0.00000000E+00  0.00000000E+00
  0.00000000E+00  0.00000000E+00  0.00000000E+00
  0.00000000E+00  0.00000000E+00  0.00000000E+00
  0.00000000E+00  0.00000000E+00  0.00000000E+00
  0.00000000E+00  0.00000000E+00  0.00000000E+00
  0.00000000E+00  0.00000000E+00  0.00000000E+00
  0.00000000E+00  0.00000000E+00  0.00000000E+00
  0.00000000E+00  0.00000000E+00  0.00000000E+00
  0.00000000E+00  0.00000000E+00  0.00000000E+00
  0.00000000E+00  0.00000000E+00  0.00000000E+00
  0.00000000E+00  0.00000000E+00  0.00000000E+00
  0.00000000E+00  0.00000000E+00  0.00000000E+00
  0.00000000E+00  0.00000000E+00  0.00000000E+00
  0.00000000E+00  0.00000000E+00  0.00000000E+00
  0.00000000E+00  0.00000000E+00  0.00000000E+00
  0.00000000E+00  0.00000000E+00  0.00000000E+00
  0.00000000E+00  0.00000000E+00  0.00000000E+00
  0.00000000E+00  0.00000000E+00  0.00000000E+00
  0.00000000E+00  0.00000000E+00  0.00000000E+00
  0.00000000E+00  0.00000000E+00  0.00000000E+00
  0.00000000E+00  0.00000000E+00  0.00000000E+00
  0.00000000E+00  0.00000000E+00  0.00000000E+00
  0.00000000E+00  0.00000000E+00  0.00000000E+00
  0.00000000E+00  0.00000000E+00  0.00000000E+00
  0.00000000E+00  0.00000000E+00  0.00000000E+00
