POSCAR                                  
   1.00000000000000     
    10.0267700000000008    0.0000000000000000    0.0000000000000000
    -5.0133850000000004    8.6834375399999999    0.0000000000000000
     0.0000000000000000    0.0000000000000000   21.2434582200000008
   Ni   Fe
    45    19
Selective dynamics
Direct
  0.0005290000000002  0.0005299999999977  0.1934385200000008   F   F   F
  0.2500130000000027  0.0002870000000001  0.1925826900000018   F   F   F
  0.4994870000000020  0.9990799999999993  0.1933064299999998   F   F   F
  0.7493020000000001  0.9991929999999982  0.1933879400000009   F   F   F
  0.9986400000000017  0.2485069999999965  0.1932847499999966   F   F   F
  0.2501260000000016  0.2502160000000018  0.1929272200000014   F   F   F
  0.0833611602008233  0.1667394185220701  0.2897136347858833   T   T   T
  0.5006419999999991  0.2489130000000017  0.1933734899999990   F   F   F
  0.3325155828460993  0.1667214566438275  0.2900380901912811   T   T   T
  0.7505250000000032  0.2500619999999998  0.1941981100000021   F   F   F
  0.5820589871986215  0.1675007711775152  0.2908211336821225   T   T   T
  0.8336897296602572  0.1674914713280486  0.2896406847600375   T   T   T
  0.6655810000000031  0.0830550000000017  0.0972433600000002   F   F   F
  0.6661765598607161  0.0834206639843345  0.3847479109782839   T   T   T
  0.9163970000000035  0.0820310000000006  0.0967115300000003   F   F   F
  0.9143897939331893  0.0799421878459583  0.3830165921948847   T   T   T
  0.0018340000000023  0.5004750000000016  0.1918979599999986   F   F   F
  0.0807934155742842  0.4170735710743827  0.2897540068776223   T   T   T
  0.1661179999999973  0.3339519999999965  0.0967375500000003   F   F   F
  0.1671515651885684  0.3335493488003465  0.3833882267166686   T   T   T
  0.7517020000000016  0.5018689999999992  0.1921144499999983   F   F   F
  0.5840628469215758  0.4166018685954569  0.2904432819398863   T   T   T
  0.0010910000000024  0.7511530000000022  0.1921916200000027   F   F   F
  0.2490260000000006  0.7488570000000010  0.1920008600000003   F   F   F
  0.0842420381717375  0.6676200482279171  0.2878549968170034   T   T   T
  0.4997249999999980  0.7491729999999990  0.1921497100000025   F   F   F
  0.3317091223742992  0.6655352247584787  0.2879804125950756   T   T   T
  0.7512830000000008  0.7509360000000029  0.1929399300000014   F   F   F
  0.5831303061522277  0.6662249763017911  0.2882945181944052   T   T   T
  0.4166099999999986  0.5820020000000028  0.0954819800000024   F   F   F
  0.4193587066493336  0.5826128602178358  0.3827918680536442   T   T   T
  0.8338353549965305  0.6666502048621652  0.2883335914791800   T   T   T
  0.9170829999999981  0.5832389999999990  0.0954597200000009   F   F   F
  0.9176315748282207  0.5833352617419720  0.3822963580713932   T   T   T
  0.0839655863837692  0.9176448897687948  0.2881901837711922   T   T   T
  0.3344715781942824  0.9170346251035539  0.2890648403728306   T   T   T
  0.1667089999999973  0.8352420000000009  0.0960294099999999   F   F   F
  0.1667424677262446  0.8361027087523070  0.3815189365489431   T   T   T
  0.4170349999999985  0.8321490000000011  0.0967207799999983   F   F   F
  0.4188867644503205  0.8326314666352204  0.3834874525404857   T   T   T
  0.8324715083213619  0.9168047803099242  0.2892001093252290   T   T   T
  0.6662389999999974  0.8333700000000022  0.0970022999999998   F   F   F
  0.6668233476378020  0.8354978049366721  0.3837016975277834   T   T   T
  0.9170590000000018  0.8331950000000035  0.0968236800000000   F   F   F
  0.9164526481494235  0.8334076265873662  0.3820873778180740   T   T   T
  0.1616849999999985  0.0821150000000017  0.0959701600000002   F   F   F
  0.1611956263680625  0.0816973743013847  0.3837104934717459   T   T   T
  0.4160749999999993  0.0780710000000013  0.0964354999999983   F   F   F
  0.4154618913563439  0.0769832956300931  0.3840688737876974   T   T   T
  0.2482990000000029  0.4990459999999999  0.1926422299999970   F   F   F
  0.5064810000000008  0.5025949999999995  0.1933847600000007   F   F   F
  0.3328071907335826  0.4159238250072335  0.2909124880636114   T   T   T
  0.4163840000000008  0.3314430000000002  0.0971829499999970   F   F   F
  0.4198118544642355  0.3319105375614129  0.3880294593485303   T   T   T
  0.8331782611104259  0.4177370245833316  0.2892293401445087   T   T   T
  0.6673240000000007  0.3324059999999989  0.0990110999999985   F   F   F
  0.6678790481874870  0.3336739217690479  0.3878752038788988   T   T   T
  0.9144640000000024  0.3269549999999981  0.0986223499999994   F   F   F
  0.9157028925247417  0.3263561131161339  0.3862927869305253   T   T   T
  0.1691420000000008  0.5883340000000032  0.0941466299999973   F   F   F
  0.1697392443703407  0.5869000105048983  0.3826330866120387   T   T   T
  0.6696159999999978  0.5892890000000008  0.0945278700000003   F   F   F
  0.6705160446800704  0.5902568002216029  0.3827646020810107   T   T   T
  0.5830376451528423  0.9162262130441192  0.2892966594240534   T   T   T
 
  0.00000000E+00  0.00000000E+00  0.00000000E+00
  0.00000000E+00  0.00000000E+00  0.00000000E+00
  0.00000000E+00  0.00000000E+00  0.00000000E+00
  0.00000000E+00  0.00000000E+00  0.00000000E+00
  0.00000000E+00  0.00000000E+00  0.00000000E+00
  0.00000000E+00  0.00000000E+00  0.00000000E+00
  0.00000000E+00  0.00000000E+00  0.00000000E+00
  0.00000000E+00  0.00000000E+00  0.00000000E+00
  0.00000000E+00  0.00000000E+00  0.00000000E+00
  0.00000000E+00  0.00000000E+00  0.00000000E+00
  0.00000000E+00  0.00000000E+00  0.00000000E+00
  0.00000000E+00  0.00000000E+00  0.00000000E+00
  0.00000000E+00  0.00000000E+00  0.00000000E+00
  0.00000000E+00  0.00000000E+00  0.00000000E+00
  0.00000000E+00  0.00000000E+00  0.00000000E+00
  0.00000000E+00  0.00000000E+00  0.00000000E+00
  0.00000000E+00  0.00000000E+00  0.00000000E+00
  0.00000000E+00  0.00000000E+00  0.00000000E+00
  0.00000000E+00  0.00000000E+00  0.00000000E+00
  0.00000000E+00  0.00000000E+00  0.00000000E+00
  0.00000000E+00  0.00000000E+00  0.00000000E+00
  0.00000000E+00  0.00000000E+00  0.00000000E+00
  0.00000000E+00  0.00000000E+00  0.00000000E+00
  0.00000000E+00  0.00000000E+00  0.00000000E+00
  0.00000000E+00  0.00000000E+00  0.00000000E+00
  0.00000000E+00  0.00000000E+00  0.00000000E+00
  0.00000000E+00  0.00000000E+00  0.00000000E+00
  0.00000000E+00  0.00000000E+00  0.00000000E+00
  0.00000000E+00  0.00000000E+00  0.00000000E+00
  0.00000000E+00  0.00000000E+00  0.00000000E+00
  0.00000000E+00  0.00000000E+00  0.00000000E+00
  0.00000000E+00  0.00000000E+00  0.00000000E+00
  0.00000000E+00  0.00000000E+00  0.00000000E+00
  0.00000000E+00  0.00000000E+00  0.00000000E+00
  0.00000000E+00  0.00000000E+00  0.00000000E+00
  0.00000000E+00  0.00000000E+00  0.00000000E+00
  0.00000000E+00  0.00000000E+00  0.00000000E+00
  0.00000000E+00  0.00000000E+00  0.00000000E+00
  0.00000000E+00  0.00000000E+00  0.00000000E+00
  0.00000000E+00  0.00000000E+00  0.00000000E+00
  0.00000000E+00  0.00000000E+00  0.00000000E+00
  0.00000000E+00  0.00000000E+00  0.00000000E+00
  0.00000000E+00  0.00000000E+00  0.00000000E+00
  0.00000000E+00  0.00000000E+00  0.00000000E+00
  0.00000000E+00  0.00000000E+00  0.00000000E+00
  0.00000000E+00  0.00000000E+00  0.00000000E+00
  0.00000000E+00  0.00000000E+00  0.00000000E+00
  0.00000000E+00  0.00000000E+00  0.00000000E+00
  0.00000000E+00  0.00000000E+00  0.00000000E+00
  0.00000000E+00  0.00000000E+00  0.00000000E+00
  0.00000000E+00  0.00000000E+00  0.00000000E+00
  0.00000000E+00  0.00000000E+00  0.00000000E+00
  0.00000000E+00  0.00000000E+00  0.00000000E+00
  0.00000000E+00  0.00000000E+00  0.00000000E+00
  0.00000000E+00  0.00000000E+00  0.00000000E+00
  0.00000000E+00  0.00000000E+00  0.00000000E+00
  0.00000000E+00  0.00000000E+00  0.00000000E+00
  0.00000000E+00  0.00000000E+00  0.00000000E+00
  0.00000000E+00  0.00000000E+00  0.00000000E+00
  0.00000000E+00  0.00000000E+00  0.00000000E+00
  0.00000000E+00  0.00000000E+00  0.00000000E+00
  0.00000000E+00  0.00000000E+00  0.00000000E+00
  0.00000000E+00  0.00000000E+00  0.00000000E+00
  0.00000000E+00  0.00000000E+00  0.00000000E+00
