POSCAR                                  
   3.57100000000000     
     2.0000000000000000   -2.0000000000000000    0.0000000000000000
     0.0000000000000000    2.0000000000000000   -2.0000000000000000
     1.0000000000000000    1.0000000000000000    1.0000000000000000
   Ni   Fe
    24    24
Direct
  0.9990426545701112  0.0006422658174543  0.9937052037941427
  0.2484910668696330  0.9986282386086884  0.9989681141348896
  0.4990245659117676  0.0019270205217623  0.9981123876830935
  0.9981393555674671  0.2506735887322691  0.9985823490258170
  0.2492152145935478  0.2488620999862263  0.9959829489769447
  0.3344684938805145  0.1651464906153990  0.3308491009389414
  0.7489347486435776  0.2527811563361908  0.0028167570495583
  0.4183753802711010  0.0839396347315429  0.6624322948919783
  0.8320320533868824  0.1658838286253044  0.3372046344997628
  0.6679703973870659  0.0847226309660272  0.6678446330935230
  0.9990858682214210  0.4991080329578068  0.0023537753173741
  0.7481691428711841  0.4987108716068036  0.9989379632712598
  0.5831017087481953  0.4132039818638518  0.3324804509785508
  0.4196100098966795  0.3333714193040080  0.6625070919056455
  0.8311966648064626  0.4147586551522693  0.3379468051833570
  0.9185592181967124  0.3350160385988730  0.6678247751220283
  0.9976575934626126  0.7489693755272810  0.0007061352857747
  0.0819511040475476  0.6657041953463008  0.3346868242415795
  0.7534651791882681  0.7517284755579396  0.9975040512612807
  0.4173726797029786  0.5835243539068173  0.6697040656508122
  0.9155078244796826  0.5846194325945859  0.6669360821765693
  0.1668287372916595  0.8349076317666473  0.6639735920244405
  0.4171530400014944  0.8333879434710383  0.6716232224857492
  0.9198514537667535  0.8326367473208052  0.6668323445629056
  0.7491816000208544  0.0045383572865134  0.0026046085729874
  0.0847582806494884  0.1693267437363204  0.3223227951812433
  0.4931900821618740  0.2454395448172377  0.9976744097523280
  0.1713961221517053  0.0833926275120973  0.6666958750163730
  0.5877609400284740  0.1693125402041673  0.3302374766377341
  0.9169309101747842  0.0858153224205296  0.6623726970968846
  0.2459640567341239  0.4966934439369481  0.0046195044065556
  0.0743839105458406  0.4150961233113648  0.3345749996082716
  0.5029728167009822  0.4996209024970497  0.9952178103686222
  0.3391722805266468  0.4151445686451964  0.3330017420388742
  0.1708139261134392  0.3372416568600940  0.6671991828817738
  0.6726472175390725  0.3359807875073955  0.6689114014926076
  0.2449054486998534  0.7527000498331091  0.0037156140926058
  0.4984031255073518  0.7498825956476338  0.0008657719440350
  0.3320854535537094  0.6626209157545091  0.3411649467800046
  0.1647055711163574  0.5862714898934129  0.6734715417288797
  0.5857943590418628  0.6682610277790886  0.3324865555330163
  0.8308812153696863  0.6587747789959835  0.3316235856925474
  0.6676253596121242  0.5842620077108052  0.6661464862807165
  0.0823546380608491  0.9142708579642118  0.3249412176526505
  0.3339441545776864  0.9158429444148126  0.3373423904640802
  0.5823156840836532  0.9186518575054023  0.3400049027505005
  0.8341944188559722  0.9144941191211942  0.3313339395610697
  0.6684142724103879  0.8335106267290726  0.6709549409096738
 
  0.00000000E+00  0.00000000E+00  0.00000000E+00
  0.00000000E+00  0.00000000E+00  0.00000000E+00
  0.00000000E+00  0.00000000E+00  0.00000000E+00
  0.00000000E+00  0.00000000E+00  0.00000000E+00
  0.00000000E+00  0.00000000E+00  0.00000000E+00
  0.00000000E+00  0.00000000E+00  0.00000000E+00
  0.00000000E+00  0.00000000E+00  0.00000000E+00
  0.00000000E+00  0.00000000E+00  0.00000000E+00
  0.00000000E+00  0.00000000E+00  0.00000000E+00
  0.00000000E+00  0.00000000E+00  0.00000000E+00
  0.00000000E+00  0.00000000E+00  0.00000000E+00
  0.00000000E+00  0.00000000E+00  0.00000000E+00
  0.00000000E+00  0.00000000E+00  0.00000000E+00
  0.00000000E+00  0.00000000E+00  0.00000000E+00
  0.00000000E+00  0.00000000E+00  0.00000000E+00
  0.00000000E+00  0.00000000E+00  0.00000000E+00
  0.00000000E+00  0.00000000E+00  0.00000000E+00
  0.00000000E+00  0.00000000E+00  0.00000000E+00
  0.00000000E+00  0.00000000E+00  0.00000000E+00
  0.00000000E+00  0.00000000E+00  0.00000000E+00
  0.00000000E+00  0.00000000E+00  0.00000000E+00
  0.00000000E+00  0.00000000E+00  0.00000000E+00
  0.00000000E+00  0.00000000E+00  0.00000000E+00
  0.00000000E+00  0.00000000E+00  0.00000000E+00
  0.00000000E+00  0.00000000E+00  0.00000000E+00
  0.00000000E+00  0.00000000E+00  0.00000000E+00
  0.00000000E+00  0.00000000E+00  0.00000000E+00
  0.00000000E+00  0.00000000E+00  0.00000000E+00
  0.00000000E+00  0.00000000E+00  0.00000000E+00
  0.00000000E+00  0.00000000E+00  0.00000000E+00
  0.00000000E+00  0.00000000E+00  0.00000000E+00
  0.00000000E+00  0.00000000E+00  0.00000000E+00
  0.00000000E+00  0.00000000E+00  0.00000000E+00
  0.00000000E+00  0.00000000E+00  0.00000000E+00
  0.00000000E+00  0.00000000E+00  0.00000000E+00
  0.00000000E+00  0.00000000E+00  0.00000000E+00
  0.00000000E+00  0.00000000E+00  0.00000000E+00
  0.00000000E+00  0.00000000E+00  0.00000000E+00
  0.00000000E+00  0.00000000E+00  0.00000000E+00
  0.00000000E+00  0.00000000E+00  0.00000000E+00
  0.00000000E+00  0.00000000E+00  0.00000000E+00
  0.00000000E+00  0.00000000E+00  0.00000000E+00
  0.00000000E+00  0.00000000E+00  0.00000000E+00
  0.00000000E+00  0.00000000E+00  0.00000000E+00
  0.00000000E+00  0.00000000E+00  0.00000000E+00
  0.00000000E+00  0.00000000E+00  0.00000000E+00
  0.00000000E+00  0.00000000E+00  0.00000000E+00
  0.00000000E+00  0.00000000E+00  0.00000000E+00
