POSCAR                                  
   3.57100000000000     
     1.5000000000000000    0.0000000000000000   -1.5000000000000000
     2.0000000000000000    1.5000000000000000    2.5000000000000000
    -0.5000000000000000   -4.0000000000000000    0.5000000000000000
   Fe   Ni
    54    54
Direct
  0.1660237750626091  0.1125871529724916  0.9190677018682627
  0.0608837109215635  0.4407360219737105  0.9188365675908999
  0.2574117931393270  0.0018535339407682  0.7529157973819122
  0.4851712499388321  0.1113947871264114  0.9141295806157164
  0.1436336322333487  0.3332117597967743  0.7552220327895129
  0.3782138126826951  0.4455520618624235  0.9210341649595593
  0.0317085504224768  0.6702725508072450  0.7578520718290264
  0.2665961777536116  0.7797031595783205  0.9134906036912035
  0.5700418765501043  0.0049128806914999  0.7519603045746800
  0.0423367581667958  0.3268549471166644  0.4956343756701116
  0.6486326634393386  0.2198092865554946  0.8329184774476172
  0.4705391920583805  0.3358501868225713  0.7508779729642620
  0.5416583525530568  0.5531392052064321  0.8339385008746303
  0.6037951784509492  0.7707967213210839  0.9163441173861360
  0.5033612785845240 -0.0041086552164293  0.4949476343588473
  0.3339490176492866  0.1165434988358416  0.4199661313109270
  0.1465277817021646  0.2256489550720286  0.3352296988973561
  0.5679797317797952  0.2252069723816793  0.5794811798367520
  0.0353419278901571  0.5508931692703893  0.3341352587418401
  0.9838917199005195  0.2299301556746970  0.8377530024827680
  0.6226277881050253  0.4391537313735930  0.6706890274448241
  0.2706459214727679  0.6679737568840645  0.4930438515457370
  0.1081111739318233  0.7762588693990282  0.4218413421780083
  0.3492035176006119  0.8877061736878155  0.5803295746473717
  0.9349832171010489  0.7798757827164977  0.9148753350145183
  0.0098038919297797 -0.0035526244452437 -0.0038142594823314
  0.8259513952775046  0.0054201945474559  0.4974268259619961
  0.6604809771813417  0.1134847431256340  0.4202540441615162
  0.4788983877444787  0.2220605616533990  0.3380569549512913
  0.2965100527738783  0.3329097430533116  0.2503051779688248
  0.1301505658103203  0.4476806865388319  0.1679230970446784
  0.8926076103302936  0.2206184287337528  0.5754069523980858
  0.7262763450000059  0.3267960690576682  0.4965316901440272
  0.3627886060964582  0.5540531820204557  0.3327649404505171
  0.0225541564260407  0.7703103535498727  0.1615667279999562
  0.4277386564318336  0.7812338244538722  0.4194700644751018
  0.3248288679365171  0.0029410646755254 -0.0015851809548886
  0.4028309577421835  0.2225319398496945  0.0797276522240951
  0.2239248507743074  0.3310140094685328 -0.0018259794959052
  0.9866835026389554  0.1173901175567582  0.4193710965315703
  0.8219612361527159  0.2253076905368377  0.3396325623804504
  0.2817556284477569  0.5528434591057642  0.0815266114099944
  0.8816253402664235  0.4421367018609097  0.4118008163036672
  0.7124023715317731  0.5525571502655389  0.3342800040112450
  0.3440995756678004  0.7762840709176170  0.1674977672602622
  0.9489631484760195  0.6635748765059665  0.4912664081736382
  0.5878082456000719  0.8892415836805222  0.3366963494702060
  0.7273407649374732  0.2302854412791199  0.0872021737506529
  0.5508376533460599  0.3305372302319992  0.0011249343474778
  0.9748672615569780  0.3348885602245537  0.2509179138021826
  0.7987646215624840  0.4458475847978548  0.1627025748918402
  0.6202450994187438  0.5509829238048393  0.0791979171846219
  0.9540556017898920  0.5564974425929082  0.0852087194651124
  0.7749085960298997  0.6678648155775738  0.0009154200136596
  0.0710796158841316  0.1135093267103307  0.6684347654256890
  0.3161943415694359  0.2237254883595224  0.8349444326681288
  0.2046077383496743  0.5527667739349861  0.8332991477942275
  0.0952423420496906  0.8903688654645738  0.8334377417734707
  0.1660477445758990 -0.0010580493418429  0.4984153421734029
  0.4094589634343042  0.1110906693774252  0.6664380798625757
  0.2307055163128750  0.2227888359594911  0.5829329381210064
  0.8249500047318242  0.1130014004645869  0.9197505048551859
  0.2958960997986353  0.4429363778782872  0.6661349972541616
  0.1169215908495298  0.5563560910140058  0.5816387931082226
  0.7114282346083137  0.4456844857615492  0.9179125073669225
  0.3606325713410046  0.6664778204966224  0.7530929975656766
  0.1850999781948549  0.7778329673945737  0.6657129095258252
  0.0129802196562521  0.8892795028903889  0.5826051517416871
  0.4290575433451080  0.8922782728287318  0.8372001281722761
  0.0835534562554606  0.0013243042286561  0.2533261671382527
  0.9175400911855820  0.0031566880656547  0.7521191218462751
  0.7379806683439636  0.1112810591562624  0.6646700707223936
  0.3914229069643316  0.3324826182824963  0.4996608077477863
  0.2114675378096943  0.4439000628199516  0.4152156631015168
  0.8056445311167557  0.3306496893444602  0.7496827416169217
  0.4567701987544818  0.5554373932793131  0.5835360326159633
  0.8687045472103595  0.5550615637251615  0.8335375400869487
  0.6963755582599335  0.6658388278524967  0.7516702662416466
  0.5163124758777673  0.7787880198725243  0.6651109483870601
  0.7585612735645714  0.8907027260742361  0.8353060424924547
  0.4188945268849475  0.0011799226946398  0.2527270199060048
  0.2416307544224871  0.1121491646637663  0.1657937823282763
  0.0681919396105534  0.2260491044703985  0.0844293897645356
  0.5468557242908050  0.4419601602860657  0.4120893402300490
  0.1938597140094062  0.6647021882438160  0.2503288908084782
  0.9607944773875329  0.4428219151213854  0.6665261858454972
  0.7874450463079873  0.5525267770656237  0.5815749861288705
  0.6093430950495105  0.6662952590319219  0.4959839505621972
  0.2612453330803630  0.8877206934169312  0.3335226620689784
  0.8539198936880817  0.7741494367197665  0.6650313469333737
  0.6749148757310962  0.8915552426812250  0.5834912350167225
  0.7502503440138033  0.0020062554877076  0.2526310198578907
  0.5728758441685387  0.1144611319486785  0.1675207539654880
  0.6398812376647406  0.3338443960005310  0.2502540277775918
  0.4606308723028189  0.4444574811405618  0.1658492343966718
  0.1083563032700386  0.6654522079577403 -0.0008497638627367
  0.5259189132048218  0.6661459202055591  0.2505685785782651
  0.1758503202942728  0.8867402902430764  0.0809233107236166
  0.7689720774676380  0.7769397257360325  0.4160686760742778
  0.6664122808925982  0.0030071817576367  0.0018503404458334
  0.9090541610701466  0.1134958158960970  0.1658693864510666
  0.4451192719217845  0.6666918605980072  0.0008558408242340
  0.8631166072154158  0.6633039268541975  0.2499226807822412
  0.6853931965920006  0.7751513061570132  0.1669167398796015
  0.5072601624310019  0.8873263601603614  0.0818578677945083
  0.9231143359646534  0.8884189240001580  0.3338805917749702
  0.8875434734900225  0.3343716149203123 -0.0011701026595601
  0.8435856995596946  0.8859154635737209  0.0817019052513516
 
  0.00000000E+00  0.00000000E+00  0.00000000E+00
  0.00000000E+00  0.00000000E+00  0.00000000E+00
  0.00000000E+00  0.00000000E+00  0.00000000E+00
  0.00000000E+00  0.00000000E+00  0.00000000E+00
  0.00000000E+00  0.00000000E+00  0.00000000E+00
  0.00000000E+00  0.00000000E+00  0.00000000E+00
  0.00000000E+00  0.00000000E+00  0.00000000E+00
  0.00000000E+00  0.00000000E+00  0.00000000E+00
  0.00000000E+00  0.00000000E+00  0.00000000E+00
  0.00000000E+00  0.00000000E+00  0.00000000E+00
  0.00000000E+00  0.00000000E+00  0.00000000E+00
  0.00000000E+00  0.00000000E+00  0.00000000E+00
  0.00000000E+00  0.00000000E+00  0.00000000E+00
  0.00000000E+00  0.00000000E+00  0.00000000E+00
  0.00000000E+00  0.00000000E+00  0.00000000E+00
  0.00000000E+00  0.00000000E+00  0.00000000E+00
  0.00000000E+00  0.00000000E+00  0.00000000E+00
  0.00000000E+00  0.00000000E+00  0.00000000E+00
  0.00000000E+00  0.00000000E+00  0.00000000E+00
  0.00000000E+00  0.00000000E+00  0.00000000E+00
  0.00000000E+00  0.00000000E+00  0.00000000E+00
  0.00000000E+00  0.00000000E+00  0.00000000E+00
  0.00000000E+00  0.00000000E+00  0.00000000E+00
  0.00000000E+00  0.00000000E+00  0.00000000E+00
  0.00000000E+00  0.00000000E+00  0.00000000E+00
  0.00000000E+00  0.00000000E+00  0.00000000E+00
  0.00000000E+00  0.00000000E+00  0.00000000E+00
  0.00000000E+00  0.00000000E+00  0.00000000E+00
  0.00000000E+00  0.00000000E+00  0.00000000E+00
  0.00000000E+00  0.00000000E+00  0.00000000E+00
  0.00000000E+00  0.00000000E+00  0.00000000E+00
  0.00000000E+00  0.00000000E+00  0.00000000E+00
  0.00000000E+00  0.00000000E+00  0.00000000E+00
  0.00000000E+00  0.00000000E+00  0.00000000E+00
  0.00000000E+00  0.00000000E+00  0.00000000E+00
  0.00000000E+00  0.00000000E+00  0.00000000E+00
  0.00000000E+00  0.00000000E+00  0.00000000E+00
  0.00000000E+00  0.00000000E+00  0.00000000E+00
  0.00000000E+00  0.00000000E+00  0.00000000E+00
  0.00000000E+00  0.00000000E+00  0.00000000E+00
  0.00000000E+00  0.00000000E+00  0.00000000E+00
  0.00000000E+00  0.00000000E+00  0.00000000E+00
  0.00000000E+00  0.00000000E+00  0.00000000E+00
  0.00000000E+00  0.00000000E+00  0.00000000E+00
  0.00000000E+00  0.00000000E+00  0.00000000E+00
  0.00000000E+00  0.00000000E+00  0.00000000E+00
  0.00000000E+00  0.00000000E+00  0.00000000E+00
  0.00000000E+00  0.00000000E+00  0.00000000E+00
  0.00000000E+00  0.00000000E+00  0.00000000E+00
  0.00000000E+00  0.00000000E+00  0.00000000E+00
  0.00000000E+00  0.00000000E+00  0.00000000E+00
  0.00000000E+00  0.00000000E+00  0.00000000E+00
  0.00000000E+00  0.00000000E+00  0.00000000E+00
  0.00000000E+00  0.00000000E+00  0.00000000E+00
  0.00000000E+00  0.00000000E+00  0.00000000E+00
  0.00000000E+00  0.00000000E+00  0.00000000E+00
  0.00000000E+00  0.00000000E+00  0.00000000E+00
  0.00000000E+00  0.00000000E+00  0.00000000E+00
  0.00000000E+00  0.00000000E+00  0.00000000E+00
  0.00000000E+00  0.00000000E+00  0.00000000E+00
  0.00000000E+00  0.00000000E+00  0.00000000E+00
  0.00000000E+00  0.00000000E+00  0.00000000E+00
  0.00000000E+00  0.00000000E+00  0.00000000E+00
  0.00000000E+00  0.00000000E+00  0.00000000E+00
  0.00000000E+00  0.00000000E+00  0.00000000E+00
  0.00000000E+00  0.00000000E+00  0.00000000E+00
  0.00000000E+00  0.00000000E+00  0.00000000E+00
  0.00000000E+00  0.00000000E+00  0.00000000E+00
  0.00000000E+00  0.00000000E+00  0.00000000E+00
  0.00000000E+00  0.00000000E+00  0.00000000E+00
  0.00000000E+00  0.00000000E+00  0.00000000E+00
  0.00000000E+00  0.00000000E+00  0.00000000E+00
  0.00000000E+00  0.00000000E+00  0.00000000E+00
  0.00000000E+00  0.00000000E+00  0.00000000E+00
  0.00000000E+00  0.00000000E+00  0.00000000E+00
  0.00000000E+00  0.00000000E+00  0.00000000E+00
  0.00000000E+00  0.00000000E+00  0.00000000E+00
  0.00000000E+00  0.00000000E+00  0.00000000E+00
  0.00000000E+00  0.00000000E+00  0.00000000E+00
  0.00000000E+00  0.00000000E+00  0.00000000E+00
  0.00000000E+00  0.00000000E+00  0.00000000E+00
  0.00000000E+00  0.00000000E+00  0.00000000E+00
  0.00000000E+00  0.00000000E+00  0.00000000E+00
  0.00000000E+00  0.00000000E+00  0.00000000E+00
  0.00000000E+00  0.00000000E+00  0.00000000E+00
  0.00000000E+00  0.00000000E+00  0.00000000E+00
  0.00000000E+00  0.00000000E+00  0.00000000E+00
  0.00000000E+00  0.00000000E+00  0.00000000E+00
  0.00000000E+00  0.00000000E+00  0.00000000E+00
  0.00000000E+00  0.00000000E+00  0.00000000E+00
  0.00000000E+00  0.00000000E+00  0.00000000E+00
  0.00000000E+00  0.00000000E+00  0.00000000E+00
  0.00000000E+00  0.00000000E+00  0.00000000E+00
  0.00000000E+00  0.00000000E+00  0.00000000E+00
  0.00000000E+00  0.00000000E+00  0.00000000E+00
  0.00000000E+00  0.00000000E+00  0.00000000E+00
  0.00000000E+00  0.00000000E+00  0.00000000E+00
  0.00000000E+00  0.00000000E+00  0.00000000E+00
  0.00000000E+00  0.00000000E+00  0.00000000E+00
  0.00000000E+00  0.00000000E+00  0.00000000E+00
  0.00000000E+00  0.00000000E+00  0.00000000E+00
  0.00000000E+00  0.00000000E+00  0.00000000E+00
  0.00000000E+00  0.00000000E+00  0.00000000E+00
  0.00000000E+00  0.00000000E+00  0.00000000E+00
  0.00000000E+00  0.00000000E+00  0.00000000E+00
  0.00000000E+00  0.00000000E+00  0.00000000E+00
  0.00000000E+00  0.00000000E+00  0.00000000E+00
  0.00000000E+00  0.00000000E+00  0.00000000E+00
