POSCAR                                  
   3.57100000000000     
     2.0000000000000000   -2.0000000000000000    0.0000000000000000
     0.0000000000000000    2.0000000000000000   -2.0000000000000000
     1.0000000000000000    1.0000000000000000    1.0000000000000000
   Ni   Fe
    24    24
Direct
  0.9989627870391065 -0.0003179451445522 -0.0030413908044448
  0.2499547389822153  0.9989536759621812  0.0021103068640973
  0.5004179156758446  0.0024840301453072 -0.0025912486372203
 -0.0010823270118162  0.2507228361704716  0.9976139687183371
  0.2493099509079965  0.2484131793418911  0.9986007522188136
  0.3342830130521527  0.1662730233932527  0.3334747672656499
  0.7498816156749835  0.2533292100525753  0.0005535002548873
  0.4172954873715579  0.0842927379915636  0.6637103823710584
  0.8321029777634962  0.1667685991734672  0.3357875491264370
  0.6663972296629933  0.0844018788255663  0.6657672935958682
  0.0002691619875104  0.4994247678577783 -0.0001851530238911
  0.7494455882329629  0.4986530875473754 -0.0010437884827820
  0.5823859789514073  0.4141253277988692  0.3335096846993882
  0.4181848040176769  0.3327521072237967  0.6636571056736800
  0.8311091757071424  0.4154215656556365  0.3359757338537919
  0.9177984750508381  0.3346353418204569  0.6650894306530409
 -0.0008293433143000  0.7492839197366831  0.0025591775801239
  0.0828989779774307  0.6662625288766231  0.3336717895849671
  0.7540056384675138  0.7516023389276096 -0.0006742544733404
  0.4159517796559830  0.5826988079476620  0.6686385241816476
  0.9154058476875032  0.5845777033907686  0.6665820788210453
  0.1663140060248165  0.8340388024517853  0.6654682765566990
  0.4173500163286243  0.8336366980709191  0.6700795139210926
  0.9193893560421661  0.8318378490477578  0.6692162683456259
  0.7503173059545537  0.0046330693121603  0.0005790756145468
  0.0832354642002704  0.1687527689464229  0.3246204894096681
  0.4941910412062119  0.2459169882110923 -0.0011926823222655
  0.1694920567258597  0.0819997477372425  0.6701245619259452
  0.5876984097264445  0.1706155380012624  0.3290673641578682
  0.9150735186405792  0.0845207614373505  0.6619964234693333
  0.2466940499182399  0.4967187989265627  0.0027495643193620
  0.0741359438188173  0.4157862716884147  0.3319254534406631
  0.5033421495268569  0.4989841869122488 -0.0030396283707955
  0.3376598704153746  0.4151143885796130  0.3339264217096852
  0.1686969095268039  0.3352257838850436  0.6673124873642770
  0.6720323339486730  0.3359989798519123  0.6682651397707667
  0.2463571604489481  0.7529968427697383  0.0032419236030904
  0.5003092028891164  0.7504726854772394 -0.0015097261060990
  0.3336293143731619  0.6645703918316093  0.3385896010174692
  0.1648974928942603  0.5851953966185669  0.6702792430041195
  0.5852621830877803  0.6676114932762556  0.3318170938334260
  0.8307821381495963  0.6590813898219193  0.3337043037375192
  0.6671891690706880  0.5832859351947368  0.6673936858621335
  0.0822696417958474  0.9146712081394031  0.3282217338220488
  0.3346564305525963  0.9171982263547181  0.3386250080698483
  0.5827157699982993  0.9197517832763815  0.3371699720706273
  0.8343814481113599  0.9141922858652169  0.3325026382202340
  0.6677781430839329  0.8324330056194428  0.6690995835119768
 
  0.00000000E+00  0.00000000E+00  0.00000000E+00
  0.00000000E+00  0.00000000E+00  0.00000000E+00
  0.00000000E+00  0.00000000E+00  0.00000000E+00
  0.00000000E+00  0.00000000E+00  0.00000000E+00
  0.00000000E+00  0.00000000E+00  0.00000000E+00
  0.00000000E+00  0.00000000E+00  0.00000000E+00
  0.00000000E+00  0.00000000E+00  0.00000000E+00
  0.00000000E+00  0.00000000E+00  0.00000000E+00
  0.00000000E+00  0.00000000E+00  0.00000000E+00
  0.00000000E+00  0.00000000E+00  0.00000000E+00
  0.00000000E+00  0.00000000E+00  0.00000000E+00
  0.00000000E+00  0.00000000E+00  0.00000000E+00
  0.00000000E+00  0.00000000E+00  0.00000000E+00
  0.00000000E+00  0.00000000E+00  0.00000000E+00
  0.00000000E+00  0.00000000E+00  0.00000000E+00
  0.00000000E+00  0.00000000E+00  0.00000000E+00
  0.00000000E+00  0.00000000E+00  0.00000000E+00
  0.00000000E+00  0.00000000E+00  0.00000000E+00
  0.00000000E+00  0.00000000E+00  0.00000000E+00
  0.00000000E+00  0.00000000E+00  0.00000000E+00
  0.00000000E+00  0.00000000E+00  0.00000000E+00
  0.00000000E+00  0.00000000E+00  0.00000000E+00
  0.00000000E+00  0.00000000E+00  0.00000000E+00
  0.00000000E+00  0.00000000E+00  0.00000000E+00
  0.00000000E+00  0.00000000E+00  0.00000000E+00
  0.00000000E+00  0.00000000E+00  0.00000000E+00
  0.00000000E+00  0.00000000E+00  0.00000000E+00
  0.00000000E+00  0.00000000E+00  0.00000000E+00
  0.00000000E+00  0.00000000E+00  0.00000000E+00
  0.00000000E+00  0.00000000E+00  0.00000000E+00
  0.00000000E+00  0.00000000E+00  0.00000000E+00
  0.00000000E+00  0.00000000E+00  0.00000000E+00
  0.00000000E+00  0.00000000E+00  0.00000000E+00
  0.00000000E+00  0.00000000E+00  0.00000000E+00
  0.00000000E+00  0.00000000E+00  0.00000000E+00
  0.00000000E+00  0.00000000E+00  0.00000000E+00
  0.00000000E+00  0.00000000E+00  0.00000000E+00
  0.00000000E+00  0.00000000E+00  0.00000000E+00
  0.00000000E+00  0.00000000E+00  0.00000000E+00
  0.00000000E+00  0.00000000E+00  0.00000000E+00
  0.00000000E+00  0.00000000E+00  0.00000000E+00
  0.00000000E+00  0.00000000E+00  0.00000000E+00
  0.00000000E+00  0.00000000E+00  0.00000000E+00
  0.00000000E+00  0.00000000E+00  0.00000000E+00
  0.00000000E+00  0.00000000E+00  0.00000000E+00
  0.00000000E+00  0.00000000E+00  0.00000000E+00
  0.00000000E+00  0.00000000E+00  0.00000000E+00
  0.00000000E+00  0.00000000E+00  0.00000000E+00
