POSCAR                                  
   1.00000000000000     
     9.9295000000000009    0.0000000000000000    0.0000000000000000
     3.3098332300000002    9.3616224199999998    0.0000000000000000
     0.0000000000000000    0.0000000000000000   21.0805499999999988
   Fe   O    H 
    64     5     1
Selective dynamics
Direct
  0.0873890000000017  0.1626109999999983  0.0948739999999972   F   F   F
  0.0880588443138298  0.1604928224397590  0.2849545818088356   T   T   T
  0.2123890000000017  0.0376109999999983  0.1910219999999967   F   F   F
  0.2055024956292241  0.0306006539294497  0.3806492982786821   T   T   T
  0.3373890000000017  0.1626109999999983  0.0948739999999972   F   F   F
  0.3375457752239008  0.1626870578961377  0.2846720422314207   T   T   T
  0.4623890000000017  0.0376109999999983  0.1910219999999967   F   F   F
  0.4595497975995362  0.0356145996300638  0.3795004283452464   T   T   T
  0.5873890000000017  0.1626109999999983  0.0948739999999972   F   F   F
  0.5875113164624246  0.1622609488460277  0.2855392523366300   T   T   T
  0.7123890000000017  0.0376109999999983  0.1910219999999967   F   F   F
  0.7068172393227266  0.0288568479767227  0.3787628773660480   T   T   T
  0.8373890000000017  0.1626109999999983  0.0948739999999972   F   F   F
  0.8376950299644811  0.1627401056610565  0.2849139125849237   T   T   T
  0.9623890000000017  0.0376109999999983  0.1910219999999967   F   F   F
  0.9613439417321192  0.0327049434430644  0.3796771504392687   T   T   T
  0.0873890000000017  0.4126109999999983  0.0948739999999972   F   F   F
  0.0884605622474960  0.4116851548208655  0.2853028926128465   T   T   T
  0.2123890000000017  0.2876109999999983  0.1910219999999967   F   F   F
  0.2105792387057317  0.2846689922764267  0.3795138352798028   T   T   T
  0.3373890000000017  0.4126109999999983  0.0948739999999972   F   F   F
  0.3371158617209947  0.4126858399152818  0.2855157423049714   T   T   T
  0.4623890000000017  0.2876109999999983  0.1910219999999967   F   F   F
  0.4604954658673771  0.2856450605679281  0.3781298262991956   T   T   T
  0.5873890000000017  0.4126109999999983  0.0948739999999972   F   F   F
  0.5879897277187964  0.4131700823442758  0.2867045816958282   T   T   T
  0.7123890000000017  0.2876109999999983  0.1910219999999967   F   F   F
  0.7170843635529021  0.2828806074250571  0.3806521791662103   T   T   T
  0.8373890000000017  0.4126109999999983  0.0948739999999972   F   F   F
  0.8367616446722296  0.4130036828847917  0.2848303132167457   T   T   T
  0.9623890000000017  0.2876109999999983  0.1910219999999967   F   F   F
  0.9636714178159620  0.2876492861405907  0.3748033686984645   T   T   T
  0.0873890000000017  0.6626109999999983  0.0948739999999972   F   F   F
  0.0875037657880912  0.6615785261056976  0.2848375564354888   T   T   T
  0.2123890000000017  0.5376109999999983  0.1910219999999967   F   F   F
  0.2036874181177997  0.5319889878415416  0.3787342526913240   T   T   T
  0.3373890000000017  0.6626109999999983  0.0948739999999972   F   F   F
  0.3375349858777725  0.6628599040494273  0.2848995442452268   T   T   T
  0.4623890000000017  0.5376109999999983  0.1910219999999967   F   F   F
  0.4576349687494191  0.5421820015566916  0.3806487629127464   T   T   T
  0.5873890000000017  0.6626109999999983  0.0948739999999972   F   F   F
  0.5877691554504415  0.6619333380149505  0.2848375686871912   T   T   T
  0.7123890000000017  0.5376109999999983  0.1910219999999967   F   F   F
  0.7101976015585153  0.5355108408105815  0.3792216075257457   T   T   T
  0.8373890000000017  0.6626109999999983  0.0948739999999972   F   F   F
  0.8373424354172528  0.6625313158395804  0.2841878791748089   T   T   T
  0.9623890000000017  0.5376109999999983  0.1910219999999967   F   F   F
  0.9627526599587428  0.5331695542053905  0.3785898658900315   T   T   T
  0.0873890000000017  0.9126109999999983  0.0948739999999972   F   F   F
  0.0871801210212325  0.9123570268166747  0.2856694056890333   T   T   T
  0.2123890000000017  0.7876109999999983  0.1910219999999967   F   F   F
  0.2075659009785079  0.7864032532072828  0.3796891577144860   T   T   T
  0.3373890000000017  0.9126109999999983  0.0948739999999972   F   F   F
  0.3353105298810340  0.9131995291314835  0.2849453804450484   T   T   T
  0.4623890000000017  0.7876109999999983  0.1910219999999967   F   F   F
  0.4623390673001526  0.7887757489307359  0.3748225663073804   T   T   T
  0.5873890000000017  0.9126109999999983  0.0948739999999972   F   F   F
  0.5864888068680545  0.9135739481926016  0.2853045098803118   T   T   T
  0.7123890000000017  0.7876109999999983  0.1910219999999967   F   F   F
  0.7078977467781089  0.7879745295678179  0.3785789917842919   T   T   T
  0.8373890000000017  0.9126109999999983  0.0948739999999972   F   F   F
  0.8363791950210323  0.9127046962059340  0.2848497894690257   T   T   T
  0.9623890000000017  0.7876109999999983  0.1910219999999967   F   F   F
  0.9617751576348035  0.7870067615458983  0.3760097814909290   T   T   T
  0.3015531528906790  0.1266215679480397  0.4310669889798209   T   T   T
  0.8035009646075378  0.1177155404333190  0.4309638232673368   T   T   T
  0.8101851595275070  0.6354292278045295  0.4299939156331209   T   T   T
  0.2923803123000507  0.6284827360446010  0.4309398284378629   T   T   T
  0.5540519165925460  0.3791620830607045  0.4421828559054544   T   T   T
  0.5502693742323835  0.3751585169584591  0.4883236894207270   T   T   T
 
  0.00000000E+00  0.00000000E+00  0.00000000E+00
  0.00000000E+00  0.00000000E+00  0.00000000E+00
  0.00000000E+00  0.00000000E+00  0.00000000E+00
  0.00000000E+00  0.00000000E+00  0.00000000E+00
  0.00000000E+00  0.00000000E+00  0.00000000E+00
  0.00000000E+00  0.00000000E+00  0.00000000E+00
  0.00000000E+00  0.00000000E+00  0.00000000E+00
  0.00000000E+00  0.00000000E+00  0.00000000E+00
  0.00000000E+00  0.00000000E+00  0.00000000E+00
  0.00000000E+00  0.00000000E+00  0.00000000E+00
  0.00000000E+00  0.00000000E+00  0.00000000E+00
  0.00000000E+00  0.00000000E+00  0.00000000E+00
  0.00000000E+00  0.00000000E+00  0.00000000E+00
  0.00000000E+00  0.00000000E+00  0.00000000E+00
  0.00000000E+00  0.00000000E+00  0.00000000E+00
  0.00000000E+00  0.00000000E+00  0.00000000E+00
  0.00000000E+00  0.00000000E+00  0.00000000E+00
  0.00000000E+00  0.00000000E+00  0.00000000E+00
  0.00000000E+00  0.00000000E+00  0.00000000E+00
  0.00000000E+00  0.00000000E+00  0.00000000E+00
  0.00000000E+00  0.00000000E+00  0.00000000E+00
  0.00000000E+00  0.00000000E+00  0.00000000E+00
  0.00000000E+00  0.00000000E+00  0.00000000E+00
  0.00000000E+00  0.00000000E+00  0.00000000E+00
  0.00000000E+00  0.00000000E+00  0.00000000E+00
  0.00000000E+00  0.00000000E+00  0.00000000E+00
  0.00000000E+00  0.00000000E+00  0.00000000E+00
  0.00000000E+00  0.00000000E+00  0.00000000E+00
  0.00000000E+00  0.00000000E+00  0.00000000E+00
  0.00000000E+00  0.00000000E+00  0.00000000E+00
  0.00000000E+00  0.00000000E+00  0.00000000E+00
  0.00000000E+00  0.00000000E+00  0.00000000E+00
  0.00000000E+00  0.00000000E+00  0.00000000E+00
  0.00000000E+00  0.00000000E+00  0.00000000E+00
  0.00000000E+00  0.00000000E+00  0.00000000E+00
  0.00000000E+00  0.00000000E+00  0.00000000E+00
  0.00000000E+00  0.00000000E+00  0.00000000E+00
  0.00000000E+00  0.00000000E+00  0.00000000E+00
  0.00000000E+00  0.00000000E+00  0.00000000E+00
  0.00000000E+00  0.00000000E+00  0.00000000E+00
  0.00000000E+00  0.00000000E+00  0.00000000E+00
  0.00000000E+00  0.00000000E+00  0.00000000E+00
  0.00000000E+00  0.00000000E+00  0.00000000E+00
  0.00000000E+00  0.00000000E+00  0.00000000E+00
  0.00000000E+00  0.00000000E+00  0.00000000E+00
  0.00000000E+00  0.00000000E+00  0.00000000E+00
  0.00000000E+00  0.00000000E+00  0.00000000E+00
  0.00000000E+00  0.00000000E+00  0.00000000E+00
  0.00000000E+00  0.00000000E+00  0.00000000E+00
  0.00000000E+00  0.00000000E+00  0.00000000E+00
  0.00000000E+00  0.00000000E+00  0.00000000E+00
  0.00000000E+00  0.00000000E+00  0.00000000E+00
  0.00000000E+00  0.00000000E+00  0.00000000E+00
  0.00000000E+00  0.00000000E+00  0.00000000E+00
  0.00000000E+00  0.00000000E+00  0.00000000E+00
  0.00000000E+00  0.00000000E+00  0.00000000E+00
  0.00000000E+00  0.00000000E+00  0.00000000E+00
  0.00000000E+00  0.00000000E+00  0.00000000E+00
  0.00000000E+00  0.00000000E+00  0.00000000E+00
  0.00000000E+00  0.00000000E+00  0.00000000E+00
  0.00000000E+00  0.00000000E+00  0.00000000E+00
  0.00000000E+00  0.00000000E+00  0.00000000E+00
  0.00000000E+00  0.00000000E+00  0.00000000E+00
  0.00000000E+00  0.00000000E+00  0.00000000E+00
  0.00000000E+00  0.00000000E+00  0.00000000E+00
  0.00000000E+00  0.00000000E+00  0.00000000E+00
  0.00000000E+00  0.00000000E+00  0.00000000E+00
  0.00000000E+00  0.00000000E+00  0.00000000E+00
  0.00000000E+00  0.00000000E+00  0.00000000E+00
  0.00000000E+00  0.00000000E+00  0.00000000E+00
