POSCAR                                  
   3.57500000000000     
     2.0000000000000000   -2.0000000000000000    0.0000000000000000
     0.0000000000000000    2.0000000000000000   -2.0000000000000000
     1.0000000000000000    1.0000000000000000    1.0000000000000000
   Fe   Ni
    36    12
Direct
  0.0009729647186616  0.9965549388242082  0.9968367712005274
  0.5001728461712347  0.9989749419404166  0.9977774715032812
  0.7498604452681783  0.9950015254697492  0.0038146137352604
  0.2480761678354529  0.2440197502879102  0.9938795067662403
  0.0802158964539059  0.1677885215013382  0.3312970086805089
  0.3338843485763497  0.1643167350885940  0.3243836181914482
  0.1648437349172337  0.0851959453529288  0.6613587155906475
  0.5897900502862617  0.1710525009673148  0.3273050004566083
  0.4155476463115006  0.0857055535712263  0.6635196205925727
  0.8334404048756735  0.1662424002584873  0.3334467148501891
  0.6639181882284595  0.0853003344749520  0.6668055933273407
  0.9921870228386132  0.4936704350349771  0.0002116661551111
  0.2414078660972460  0.4931787162783550  0.9963127134794966
  0.4979027105357021  0.4972015837486428  0.0008061545359337
  0.3300989644324724  0.4203300832194375  0.3325940327499118
  0.7505080225470179  0.4969039035937535  0.0115947026558810
  0.5825297359196455  0.4158699929456125  0.3377316710146970
  0.4158249859452600  0.3386142580905354  0.6645229002171530
  0.8379093311318830  0.4183798518934040  0.3443369481027760
  0.6726670112787090  0.3379198805219115  0.6758165077206196
  0.0008417105184132  0.7457937735580457  0.9903569327718635
  0.2444419744482250  0.7488708180889586  0.9930839774490406
  0.0831204419686585  0.6646110886869021  0.3281172678604917
  0.4950836928317139  0.7457376883218594  0.0011513006663130
  0.3363036134716120  0.6708736070662636  0.3336213684078899
  0.1635710422777069  0.5812890477722483  0.6576640567328299
  0.7552268378468339  0.7489406737713635  0.0089282504949346
  0.5900265053148205  0.6699962342102838  0.3401627740564991
  0.8438367260000768  0.6705158955883627  0.3429785563393440
  0.6692457134043424  0.5874345759504727  0.6764725269124845
  0.9202067781756754  0.5898128920584030  0.6758858265001423
  0.0862495957917444  0.9177696512067541  0.3236534660728552
  0.3391106097493334  0.9153235324367517  0.3310025979461286
  0.1617826085309182  0.8327104139396110  0.6604833605129996
  0.6645536146850807  0.8373994228939069  0.6702546585875117
  0.9154353228104717  0.8384186401525758  0.6680401521016579
  0.2503780612463282  0.9975673213874722  0.9920036736387756
  0.9964746767134863  0.2451533723694884  0.0010060178245306
  0.5008551984714542  0.2478679466654642  0.9948946112788318
  0.7502468603683058  0.2472360059761372  0.0003144537762696
  0.9177852131189423  0.0889088618240140  0.6701488764279948
  0.0807626280250871  0.4143689245903920  0.3324138769398303
  0.1650229192754529  0.3330469874914208  0.6636918204736327
  0.9163528238550154  0.3337802519911249  0.6675129836195079
  0.4139990658923825  0.5834750589139581  0.6680982763187301
  0.5862667015209202  0.9181264985648631  0.3366036869456884
  0.4163705687468933  0.8325908149296808  0.6662106669985554
  0.8346901505706222  0.9201581465294171  0.3408920508184408
 
  0.00000000E+00  0.00000000E+00  0.00000000E+00
  0.00000000E+00  0.00000000E+00  0.00000000E+00
  0.00000000E+00  0.00000000E+00  0.00000000E+00
  0.00000000E+00  0.00000000E+00  0.00000000E+00
  0.00000000E+00  0.00000000E+00  0.00000000E+00
  0.00000000E+00  0.00000000E+00  0.00000000E+00
  0.00000000E+00  0.00000000E+00  0.00000000E+00
  0.00000000E+00  0.00000000E+00  0.00000000E+00
  0.00000000E+00  0.00000000E+00  0.00000000E+00
  0.00000000E+00  0.00000000E+00  0.00000000E+00
  0.00000000E+00  0.00000000E+00  0.00000000E+00
  0.00000000E+00  0.00000000E+00  0.00000000E+00
  0.00000000E+00  0.00000000E+00  0.00000000E+00
  0.00000000E+00  0.00000000E+00  0.00000000E+00
  0.00000000E+00  0.00000000E+00  0.00000000E+00
  0.00000000E+00  0.00000000E+00  0.00000000E+00
  0.00000000E+00  0.00000000E+00  0.00000000E+00
  0.00000000E+00  0.00000000E+00  0.00000000E+00
  0.00000000E+00  0.00000000E+00  0.00000000E+00
  0.00000000E+00  0.00000000E+00  0.00000000E+00
  0.00000000E+00  0.00000000E+00  0.00000000E+00
  0.00000000E+00  0.00000000E+00  0.00000000E+00
  0.00000000E+00  0.00000000E+00  0.00000000E+00
  0.00000000E+00  0.00000000E+00  0.00000000E+00
  0.00000000E+00  0.00000000E+00  0.00000000E+00
  0.00000000E+00  0.00000000E+00  0.00000000E+00
  0.00000000E+00  0.00000000E+00  0.00000000E+00
  0.00000000E+00  0.00000000E+00  0.00000000E+00
  0.00000000E+00  0.00000000E+00  0.00000000E+00
  0.00000000E+00  0.00000000E+00  0.00000000E+00
  0.00000000E+00  0.00000000E+00  0.00000000E+00
  0.00000000E+00  0.00000000E+00  0.00000000E+00
  0.00000000E+00  0.00000000E+00  0.00000000E+00
  0.00000000E+00  0.00000000E+00  0.00000000E+00
  0.00000000E+00  0.00000000E+00  0.00000000E+00
  0.00000000E+00  0.00000000E+00  0.00000000E+00
  0.00000000E+00  0.00000000E+00  0.00000000E+00
  0.00000000E+00  0.00000000E+00  0.00000000E+00
  0.00000000E+00  0.00000000E+00  0.00000000E+00
  0.00000000E+00  0.00000000E+00  0.00000000E+00
  0.00000000E+00  0.00000000E+00  0.00000000E+00
  0.00000000E+00  0.00000000E+00  0.00000000E+00
  0.00000000E+00  0.00000000E+00  0.00000000E+00
  0.00000000E+00  0.00000000E+00  0.00000000E+00
  0.00000000E+00  0.00000000E+00  0.00000000E+00
  0.00000000E+00  0.00000000E+00  0.00000000E+00
  0.00000000E+00  0.00000000E+00  0.00000000E+00
  0.00000000E+00  0.00000000E+00  0.00000000E+00
