POSCAR                                  
   1.00000000000000     
    10.0267700000000008    0.0000000000000000    0.0000000000000000
    -5.0133850000000004    8.6834375399999999    0.0000000000000000
     0.0000000000000000    0.0000000000000000   21.1889830699999990
   Ni   Fe
    50    14
Selective dynamics
Direct
  0.0005290000000002  0.0005299999999977  0.0959331899999967   F   F   F
  0.0002919727425169  0.0002709710075011  0.3822674005006080   T   T   T
  0.2500130000000027  0.0002870000000001  0.0950751600000004   F   F   F
  0.2487791037414507  0.0015964934928580  0.3818247731422904   T   T   T
  0.4994870000000020  0.9990799999999993  0.0958007699999968   F   F   F
  0.4997591280630853 -0.0014462636150734  0.3829765887548083   T   T   T
  0.7493020000000001  0.9991929999999982  0.0958824800000002   F   F   F
  0.7491061298566846 -0.0007130569472036  0.3822271865688180   T   T   T
  0.9986400000000017  0.2485069999999965  0.0957790300000028   F   F   F
 -0.0018427419834621  0.2467030824348050  0.3842297255307013   T   T   T
  0.2501260000000016  0.2502160000000018  0.0954205800000025   F   F   F
  0.2519878773113469  0.2525883486981060  0.3837558690128397   T   T   T
  0.0828819999999979  0.1663319999999970  0.1923626299999981   F   F   F
  0.5006419999999991  0.2489130000000017  0.0958679900000021   F   F   F
  0.4989892979123870  0.2469548509305265  0.3845259054418280   T   T   T
  0.3329390000000032  0.1668579999999977  0.1924284099999980   F   F   F
  0.7505250000000032  0.2500619999999998  0.0966947300000029   F   F   F
  0.7501968375635903  0.2507603827564309  0.3854885197750260   T   T   T
  0.5823070000000001  0.1672009999999986  0.1933893100000006   F   F   F
  0.8340320000000006  0.1667240000000021  0.1931369200000006   F   F   F
  0.6660572441268385  0.0843111642297190  0.2883400533228087   T   T   T
  0.9165559741844449  0.0828678565633033  0.2877958197747616   T   T   T
  0.0018340000000023  0.5004750000000016  0.0943886700000007   F   F   F
  0.0007015196338724  0.4997188756637413  0.3822282406955775   T   T   T
  0.0809220000000010  0.4160970000000006  0.1926338600000008   F   F   F
  0.1667789456473683  0.3360083594396899  0.2886750262084730   T   T   T
  0.7517020000000016  0.5018689999999992  0.0946057199999970   F   F   F
  0.7505125754350763  0.5007536724465419  0.3828339943011316   T   T   T
  0.5835730000000012  0.4161720000000031  0.1926196599999983   F   F   F
  0.0010910000000024  0.7511530000000022  0.0946830899999966   F   F   F
  0.0006488658356268  0.7511121894781634  0.3811404385084585   T   T   T
  0.2490260000000006  0.7488570000000010  0.0944918300000026   F   F   F
  0.2494612938429781  0.7504257254211167  0.3815223291237888   T   T   T
  0.0837580000000031  0.6681039999999996  0.1914834399999990   F   F   F
  0.4997249999999980  0.7491729999999990  0.0946410700000015   F   F   F
  0.4990531510325779  0.7481006104560687  0.3827474028019802   T   T   T
  0.3329740000000001  0.6672769999999986  0.1910739799999988   F   F   F
  0.7512830000000008  0.7509360000000029  0.0954333299999988   F   F   F
  0.7498283970517720  0.7498933748623979  0.3818957620535478   T   T   T
  0.5829809999999966  0.6666820000000016  0.1911956900000007   F   F   F
  0.4170554733190674  0.5822539462770473  0.2883470918503030   T   T   T
  0.8339590000000001  0.6677060000000026  0.1916651299999970   F   F   F
  0.9162604126802064  0.5824350780628018  0.2866738107902816   T   T   T
  0.0829170000000019  0.9168579999999977  0.1918723200000017   F   F   F
  0.3342060000000018  0.9170540000000003  0.1920679199999995   F   F   F
  0.1665964817249519  0.8353362911504597  0.2866605962162981   T   T   T
  0.4168456093339301  0.8319416535043812  0.2880515131171031   T   T   T
  0.8323310000000035  0.9171499999999995  0.1930227400000035   F   F   F
  0.6661243097514641  0.8329281237919417  0.2879481103847116   T   T   T
  0.9164505988965403  0.8328602181611069  0.2871508762883789   T   T   T
  0.1619575897723844  0.0834571658904773  0.2879597967211979   T   T   T
  0.4169209900175825  0.0777854840788936  0.2882683598476589   T   T   T
  0.2482990000000029  0.4990459999999999  0.0951348500000009   F   F   F
  0.2459697009017046  0.4989034953311678  0.3836668223400862   T   T   T
  0.5064810000000008  0.5025949999999995  0.0958793000000000   F   F   F
  0.5056407950290280  0.5020141928061310  0.3879494253193439   T   T   T
  0.3313410000000019  0.4171430000000029  0.1924623100000034   F   F   F
  0.4176419344265300  0.3332458880201754  0.2902407943550788   T   T   T
  0.8335480000000004  0.4183900000000023  0.1911739499999996   F   F   F
  0.6674133166441274  0.3315568361595760  0.2917116019515160   T   T   T
  0.9150234266214559  0.3269919944297055  0.2914732081647270   T   T   T
  0.1690191384803664  0.5889733060629964  0.2864574479929195   T   T   T
  0.6686247364585246  0.5884599623289395  0.2871965818373799   T   T   T
  0.5831039999999987  0.9165149999999969  0.1925211399999966   F   F   F
 
  0.00000000E+00  0.00000000E+00  0.00000000E+00
  0.00000000E+00  0.00000000E+00  0.00000000E+00
  0.00000000E+00  0.00000000E+00  0.00000000E+00
  0.00000000E+00  0.00000000E+00  0.00000000E+00
  0.00000000E+00  0.00000000E+00  0.00000000E+00
  0.00000000E+00  0.00000000E+00  0.00000000E+00
  0.00000000E+00  0.00000000E+00  0.00000000E+00
  0.00000000E+00  0.00000000E+00  0.00000000E+00
  0.00000000E+00  0.00000000E+00  0.00000000E+00
  0.00000000E+00  0.00000000E+00  0.00000000E+00
  0.00000000E+00  0.00000000E+00  0.00000000E+00
  0.00000000E+00  0.00000000E+00  0.00000000E+00
  0.00000000E+00  0.00000000E+00  0.00000000E+00
  0.00000000E+00  0.00000000E+00  0.00000000E+00
  0.00000000E+00  0.00000000E+00  0.00000000E+00
  0.00000000E+00  0.00000000E+00  0.00000000E+00
  0.00000000E+00  0.00000000E+00  0.00000000E+00
  0.00000000E+00  0.00000000E+00  0.00000000E+00
  0.00000000E+00  0.00000000E+00  0.00000000E+00
  0.00000000E+00  0.00000000E+00  0.00000000E+00
  0.00000000E+00  0.00000000E+00  0.00000000E+00
  0.00000000E+00  0.00000000E+00  0.00000000E+00
  0.00000000E+00  0.00000000E+00  0.00000000E+00
  0.00000000E+00  0.00000000E+00  0.00000000E+00
  0.00000000E+00  0.00000000E+00  0.00000000E+00
  0.00000000E+00  0.00000000E+00  0.00000000E+00
  0.00000000E+00  0.00000000E+00  0.00000000E+00
  0.00000000E+00  0.00000000E+00  0.00000000E+00
  0.00000000E+00  0.00000000E+00  0.00000000E+00
  0.00000000E+00  0.00000000E+00  0.00000000E+00
  0.00000000E+00  0.00000000E+00  0.00000000E+00
  0.00000000E+00  0.00000000E+00  0.00000000E+00
  0.00000000E+00  0.00000000E+00  0.00000000E+00
  0.00000000E+00  0.00000000E+00  0.00000000E+00
  0.00000000E+00  0.00000000E+00  0.00000000E+00
  0.00000000E+00  0.00000000E+00  0.00000000E+00
  0.00000000E+00  0.00000000E+00  0.00000000E+00
  0.00000000E+00  0.00000000E+00  0.00000000E+00
  0.00000000E+00  0.00000000E+00  0.00000000E+00
  0.00000000E+00  0.00000000E+00  0.00000000E+00
  0.00000000E+00  0.00000000E+00  0.00000000E+00
  0.00000000E+00  0.00000000E+00  0.00000000E+00
  0.00000000E+00  0.00000000E+00  0.00000000E+00
  0.00000000E+00  0.00000000E+00  0.00000000E+00
  0.00000000E+00  0.00000000E+00  0.00000000E+00
  0.00000000E+00  0.00000000E+00  0.00000000E+00
  0.00000000E+00  0.00000000E+00  0.00000000E+00
  0.00000000E+00  0.00000000E+00  0.00000000E+00
  0.00000000E+00  0.00000000E+00  0.00000000E+00
  0.00000000E+00  0.00000000E+00  0.00000000E+00
  0.00000000E+00  0.00000000E+00  0.00000000E+00
  0.00000000E+00  0.00000000E+00  0.00000000E+00
  0.00000000E+00  0.00000000E+00  0.00000000E+00
  0.00000000E+00  0.00000000E+00  0.00000000E+00
  0.00000000E+00  0.00000000E+00  0.00000000E+00
  0.00000000E+00  0.00000000E+00  0.00000000E+00
  0.00000000E+00  0.00000000E+00  0.00000000E+00
  0.00000000E+00  0.00000000E+00  0.00000000E+00
  0.00000000E+00  0.00000000E+00  0.00000000E+00
  0.00000000E+00  0.00000000E+00  0.00000000E+00
  0.00000000E+00  0.00000000E+00  0.00000000E+00
  0.00000000E+00  0.00000000E+00  0.00000000E+00
  0.00000000E+00  0.00000000E+00  0.00000000E+00
  0.00000000E+00  0.00000000E+00  0.00000000E+00
