POSCAR                                  
   1.00000000000000     
    10.0267700000000008    0.0000000000000000    0.0000000000000000
    -5.0133850000000004    8.6834375399999999    0.0000000000000000
     0.0000000000000000    0.0000000000000000   21.1891800000000003
   Ni   Fe   O 
    49    15     5
Selective dynamics
Direct
  0.9992990885284456  0.0007113407737549  0.2873529755224524   T   T   T
  0.2495574451618623  0.0023149351109026  0.2850946832585137   T   T   T
  0.4971587999863161  0.9989169937991775  0.2865502391282746   T   T   T
  0.7475305794728584  0.9989870181585019  0.2859931117819698   T   T   T
  0.9989131796471682  0.2486455022593930  0.2869594568713794   T   T   T
  0.2518876616008896  0.2531534734302952  0.2873118494669527   T   T   T
  0.0828819999999979  0.1663319999999970  0.0956759999999974   F   F   F
  0.0796287809183340  0.1610668905367518  0.3845323158380580   T   T   T
  0.5001449205530903  0.2519224885779039  0.2874272039515375   T   T   T
  0.3329390000000032  0.1668579999999977  0.0957420000000013   F   F   F
  0.3318611073305604  0.1674101314692322  0.3789008006679495   T   T   T
  0.7499947017321347  0.2517696937890719  0.2873387331022101   T   T   T
  0.5823070000000001  0.1672009999999986  0.0967029999999980   F   F   F
  0.5760537649441630  0.1550532738162786  0.3820671698129630   T   T   T
  0.8340320000000006  0.1667240000000021  0.0964510000000018   F   F   F
  0.8309175956442587  0.1638478675122670  0.3789337257060978   T   T   T
  0.6655810000000031  0.0830550000000017  0.1925829999999991   F   F   F
  0.9163970000000035  0.0820310000000006  0.1920489999999972   F   F   F
  0.0026445986335304  0.5015104111439328  0.2858997620390156   T   T   T
  0.0809220000000010  0.4160970000000006  0.0959479999999999   F   F   F
  0.0787484510021770  0.4170216705296212  0.3834530486654302   T   T   T
  0.1661179999999973  0.3339519999999965  0.1920750000000027   F   F   F
  0.7521617954657813  0.5021576063774731  0.2876241836523690   T   T   T
  0.5835730000000012  0.4161720000000031  0.0959330000000023   F   F   F
  0.5789576573697062  0.4140023962507371  0.3931030183898727   T   T   T
  0.0004018638167764  0.7517865080333621  0.2867384156119854   T   T   T
  0.2491247379178034  0.7493948977037874  0.2851793587099820   T   T   T
  0.0837580000000031  0.6681039999999996  0.0947969999999998   F   F   F
  0.0814116256145425  0.6624393357891805  0.3822682365170920   T   T   T
  0.5020406689348604  0.7483824907006138  0.2875490290113802   T   T   T
  0.3329740000000001  0.6672769999999986  0.0943880000000021   F   F   F
  0.3316773195294687  0.6643041730602732  0.3783673121460609   T   T   T
  0.7511970242031509  0.7496513905977835  0.2868835798183724   T   T   T
  0.5829809999999966  0.6666820000000016  0.0945090000000022   F   F   F
  0.5771656166016044  0.6632319783176257  0.3920038496220712   T   T   T
  0.4166099999999986  0.5820020000000028  0.1908170000000027   F   F   F
  0.8339590000000001  0.6677060000000026  0.0949790000000021   F   F   F
  0.8377265287332349  0.6689341923035101  0.3836573655260835   T   T   T
  0.9170829999999981  0.5832389999999990  0.1907939999999968   F   F   F
  0.0829170000000019  0.9168579999999977  0.0951859999999982   F   F   F
  0.0820598429954345  0.9195540800034507  0.3831053904049995   T   T   T
  0.3342060000000018  0.9170540000000003  0.0953820000000007   F   F   F
  0.3340644287568253  0.9168885230271826  0.3826005621220219   T   T   T
  0.1667089999999973  0.8352420000000009  0.1913649999999976   F   F   F
  0.4170349999999985  0.8321490000000011  0.1920590000000004   F   F   F
  0.8323310000000035  0.9171499999999995  0.0963369999999983   F   F   F
  0.8393073529360962  0.9228433027535345  0.3832094126235006   T   T   T
  0.6662389999999974  0.8333700000000022  0.1923409999999990   F   F   F
  0.9170590000000018  0.8331950000000035  0.1921620000000033   F   F   F
  0.1616849999999985  0.0821150000000017  0.1913059999999973   F   F   F
  0.4160749999999993  0.0780710000000013  0.1917729999999978   F   F   F
  0.2492187974500411  0.4986260422364452  0.2873968528671611   T   T   T
  0.5073447471102881  0.5031169249037788  0.2908878023173429   T   T   T
  0.3313410000000019  0.4171430000000029  0.0957760000000007   F   F   F
  0.3303306163403548  0.4130303722909332  0.3875548943514886   T   T   T
  0.4163840000000008  0.3314430000000002  0.1925219999999968   F   F   F
  0.8335480000000004  0.4183900000000023  0.0944879999999984   F   F   F
  0.8382614732860674  0.4135179086099114  0.3824551933310261   T   T   T
  0.6673240000000007  0.3324059999999989  0.1943550000000016   F   F   F
  0.9144640000000024  0.3269549999999981  0.1939649999999986   F   F   F
  0.1691420000000008  0.5883340000000032  0.1894780000000011   F   F   F
  0.6696159999999978  0.5892890000000008  0.1898600000000030   F   F   F
  0.5831039999999987  0.9165149999999969  0.0958350000000010   F   F   F
  0.5767751640840899  0.9169279148328471  0.3802778390841297   T   T   T
  0.6746007071887092  0.3163136132198048  0.4362283220993106   T   T   T
  0.1651992658232544  0.8321409006013170  0.4342088409484006   T   T   T
  0.1580501142428972  0.3298368332856825  0.4381004718579220   T   T   T
  0.6703566202524129  0.8560179749732129  0.4357456391206682   T   T   T
  0.6797107546910937  0.5902190951247519  0.4394687013818910   T   T   T
 
  0.00000000E+00  0.00000000E+00  0.00000000E+00
  0.00000000E+00  0.00000000E+00  0.00000000E+00
  0.00000000E+00  0.00000000E+00  0.00000000E+00
  0.00000000E+00  0.00000000E+00  0.00000000E+00
  0.00000000E+00  0.00000000E+00  0.00000000E+00
  0.00000000E+00  0.00000000E+00  0.00000000E+00
  0.00000000E+00  0.00000000E+00  0.00000000E+00
  0.00000000E+00  0.00000000E+00  0.00000000E+00
  0.00000000E+00  0.00000000E+00  0.00000000E+00
  0.00000000E+00  0.00000000E+00  0.00000000E+00
  0.00000000E+00  0.00000000E+00  0.00000000E+00
  0.00000000E+00  0.00000000E+00  0.00000000E+00
  0.00000000E+00  0.00000000E+00  0.00000000E+00
  0.00000000E+00  0.00000000E+00  0.00000000E+00
  0.00000000E+00  0.00000000E+00  0.00000000E+00
  0.00000000E+00  0.00000000E+00  0.00000000E+00
  0.00000000E+00  0.00000000E+00  0.00000000E+00
  0.00000000E+00  0.00000000E+00  0.00000000E+00
  0.00000000E+00  0.00000000E+00  0.00000000E+00
  0.00000000E+00  0.00000000E+00  0.00000000E+00
  0.00000000E+00  0.00000000E+00  0.00000000E+00
  0.00000000E+00  0.00000000E+00  0.00000000E+00
  0.00000000E+00  0.00000000E+00  0.00000000E+00
  0.00000000E+00  0.00000000E+00  0.00000000E+00
  0.00000000E+00  0.00000000E+00  0.00000000E+00
  0.00000000E+00  0.00000000E+00  0.00000000E+00
  0.00000000E+00  0.00000000E+00  0.00000000E+00
  0.00000000E+00  0.00000000E+00  0.00000000E+00
  0.00000000E+00  0.00000000E+00  0.00000000E+00
  0.00000000E+00  0.00000000E+00  0.00000000E+00
  0.00000000E+00  0.00000000E+00  0.00000000E+00
  0.00000000E+00  0.00000000E+00  0.00000000E+00
  0.00000000E+00  0.00000000E+00  0.00000000E+00
  0.00000000E+00  0.00000000E+00  0.00000000E+00
  0.00000000E+00  0.00000000E+00  0.00000000E+00
  0.00000000E+00  0.00000000E+00  0.00000000E+00
  0.00000000E+00  0.00000000E+00  0.00000000E+00
  0.00000000E+00  0.00000000E+00  0.00000000E+00
  0.00000000E+00  0.00000000E+00  0.00000000E+00
  0.00000000E+00  0.00000000E+00  0.00000000E+00
  0.00000000E+00  0.00000000E+00  0.00000000E+00
  0.00000000E+00  0.00000000E+00  0.00000000E+00
  0.00000000E+00  0.00000000E+00  0.00000000E+00
  0.00000000E+00  0.00000000E+00  0.00000000E+00
  0.00000000E+00  0.00000000E+00  0.00000000E+00
  0.00000000E+00  0.00000000E+00  0.00000000E+00
  0.00000000E+00  0.00000000E+00  0.00000000E+00
  0.00000000E+00  0.00000000E+00  0.00000000E+00
  0.00000000E+00  0.00000000E+00  0.00000000E+00
  0.00000000E+00  0.00000000E+00  0.00000000E+00
  0.00000000E+00  0.00000000E+00  0.00000000E+00
  0.00000000E+00  0.00000000E+00  0.00000000E+00
  0.00000000E+00  0.00000000E+00  0.00000000E+00
  0.00000000E+00  0.00000000E+00  0.00000000E+00
  0.00000000E+00  0.00000000E+00  0.00000000E+00
  0.00000000E+00  0.00000000E+00  0.00000000E+00
  0.00000000E+00  0.00000000E+00  0.00000000E+00
  0.00000000E+00  0.00000000E+00  0.00000000E+00
  0.00000000E+00  0.00000000E+00  0.00000000E+00
  0.00000000E+00  0.00000000E+00  0.00000000E+00
  0.00000000E+00  0.00000000E+00  0.00000000E+00
  0.00000000E+00  0.00000000E+00  0.00000000E+00
  0.00000000E+00  0.00000000E+00  0.00000000E+00
  0.00000000E+00  0.00000000E+00  0.00000000E+00
  0.00000000E+00  0.00000000E+00  0.00000000E+00
  0.00000000E+00  0.00000000E+00  0.00000000E+00
  0.00000000E+00  0.00000000E+00  0.00000000E+00
  0.00000000E+00  0.00000000E+00  0.00000000E+00
  0.00000000E+00  0.00000000E+00  0.00000000E+00
