POSCAR                                  
   3.54500000000000     
     2.0000000000000000    0.0000000000000000    0.0000000000000000
     0.0000000000000000    2.0000000000000000    0.0000000000000000
     0.0000000000000000    0.0000000000000000    2.0000000000000000
   Ni   Fe
    24     8
Direct
 -0.0007478144593147  0.0010641307128140  0.4999943078324549
  0.0019844654710084  0.2488633921657653  0.7512475735906096
 -0.0017733815322345  0.2509814690290418  0.2487652836000380
 -0.0007070111924533  0.4982474156563511  0.4985024323947519
 -0.0018806920904110  0.7528190185911922  0.7501561762413683
  0.2487803051272271  0.0017332301366867  0.2500709510461813
  0.2497251329672152  0.2497807386012586  0.4989099933912962
  0.5017074012519788 -0.0019961656527818  0.5008459294933598
  0.4977826618049862  0.2518281964063411  0.7481570388261850
  0.7492360228129317  0.0004004276106025  0.7507248544182304
  0.0010430354402404  0.5017580327472465 -0.0002361989035358
 -0.0000848225897327  0.7480672119963918  0.2508862133806996
  0.2515175981324808  0.4991829298115093  0.2496514751826903
  0.2476228481826594  0.7507131028678575  0.5002356373702269
  0.4995620741091351  0.0031600142586218  0.0003385318956948
  0.5016829791523743  0.5016624574968170  0.5005254121817118
  0.5014219740747369  0.7480015362293275  0.7508620291995239
  0.7520071350109372  0.0000573530652721  0.2504365115416216
  0.7500765190953951  0.2504965560896978  0.5011960854236567
  0.7526702714308068  0.4995730955305428  0.7496424126967409
  0.2516493915882719  0.7489783563468618  0.0012396637067079
  0.7477091440469851  0.4993098351174010  0.2478318882718448
  0.7514544122417987  0.7492806462883523  0.4999844936429161
  0.7473240282182337  0.7489880347434665  0.0004510731554873
  0.2537553390947011 -0.0032122528035096  0.7447015062815068
 -0.0012492735196135 -0.0066864126360193  0.0030817904345592
  0.2448557752146803  0.5045357797163159  0.7414793465236934
  0.2474724124393390  0.2513734959431271  0.0034850592942900
  0.5013853311156340  0.2468592319610850  0.2609597098619804
  0.5015964801675372  0.4999748378432898 -0.0049140646695799
  0.4995402370669753  0.7548354711121076  0.2543558441875310
  0.7528800201254897  0.2493688330169731 -0.0035689614944355
 
  0.00000000E+00  0.00000000E+00  0.00000000E+00
  0.00000000E+00  0.00000000E+00  0.00000000E+00
  0.00000000E+00  0.00000000E+00  0.00000000E+00
  0.00000000E+00  0.00000000E+00  0.00000000E+00
  0.00000000E+00  0.00000000E+00  0.00000000E+00
  0.00000000E+00  0.00000000E+00  0.00000000E+00
  0.00000000E+00  0.00000000E+00  0.00000000E+00
  0.00000000E+00  0.00000000E+00  0.00000000E+00
  0.00000000E+00  0.00000000E+00  0.00000000E+00
  0.00000000E+00  0.00000000E+00  0.00000000E+00
  0.00000000E+00  0.00000000E+00  0.00000000E+00
  0.00000000E+00  0.00000000E+00  0.00000000E+00
  0.00000000E+00  0.00000000E+00  0.00000000E+00
  0.00000000E+00  0.00000000E+00  0.00000000E+00
  0.00000000E+00  0.00000000E+00  0.00000000E+00
  0.00000000E+00  0.00000000E+00  0.00000000E+00
  0.00000000E+00  0.00000000E+00  0.00000000E+00
  0.00000000E+00  0.00000000E+00  0.00000000E+00
  0.00000000E+00  0.00000000E+00  0.00000000E+00
  0.00000000E+00  0.00000000E+00  0.00000000E+00
  0.00000000E+00  0.00000000E+00  0.00000000E+00
  0.00000000E+00  0.00000000E+00  0.00000000E+00
  0.00000000E+00  0.00000000E+00  0.00000000E+00
  0.00000000E+00  0.00000000E+00  0.00000000E+00
  0.00000000E+00  0.00000000E+00  0.00000000E+00
  0.00000000E+00  0.00000000E+00  0.00000000E+00
  0.00000000E+00  0.00000000E+00  0.00000000E+00
  0.00000000E+00  0.00000000E+00  0.00000000E+00
  0.00000000E+00  0.00000000E+00  0.00000000E+00
  0.00000000E+00  0.00000000E+00  0.00000000E+00
  0.00000000E+00  0.00000000E+00  0.00000000E+00
  0.00000000E+00  0.00000000E+00  0.00000000E+00
