POSCAR                                  
   1.00000000000000     
     9.9673800000000004    0.0000000000000000    0.0000000000000000
    -4.9836900000000002    8.6320042899999994    0.0000000000000000
     0.0000000000000000    0.0000000000000000   21.1037500000000016
   Ni   O 
    64     5
Selective dynamics
Direct
  0.1128330000000020  0.2256670000000014  0.0947699999999969   F   F   F
  0.1087695386135877  0.2272857305328408  0.3818229561848341   F   F   F
  0.1961670000000026  0.1423330000000007  0.1911780000000007   F   F   F
  0.0297605460475570  0.0592700397342132  0.2845415436641903   F   F   F
  0.3628330000000020  0.2256670000000014  0.0947699999999969   F   F   F
  0.3603279174209286  0.2248054022775070  0.3897770814422221   F   F   F
  0.4461670000000026  0.1423330000000007  0.1911780000000007   F   F   F
  0.2796708164534554  0.0604066266974643  0.2855806587357338   F   F   F
  0.6128330000000020  0.2256670000000014  0.0947699999999969   F   F   F
  0.6135434743779533  0.2250220064430727  0.3894626826542015   F   F   F
  0.6961670000000026  0.1423330000000007  0.1911780000000007   F   F   F
  0.5303892383726510  0.0604039083596609  0.2855427088447730   F   F   F
  0.8628330000000020  0.2256670000000014  0.0947699999999969   F   F   F
  0.8677645152576071  0.2274068858261409  0.3817920425442825   F   F   F
  0.9461670000000026  0.1423330000000007  0.1911780000000007   F   F   F
  0.7792292851466958  0.0593013086986813  0.2845373372673023   F   F   F
  0.1128330000000020  0.4756670000000014  0.0947699999999969   F   F   F
  0.1110150275228842  0.4725411429345820  0.3825061554623371   F   F   F
  0.1961670000000026  0.3923330000000007  0.1911780000000007   F   F   F
  0.0296613740862312  0.3096435826122628  0.2863467707727924   F   F   F
  0.3628330000000020  0.4756670000000014  0.0947699999999969   F   F   F
  0.3613522790695829  0.4772184641598045  0.3767993077091855   F   F   F
  0.4461670000000026  0.3923330000000007  0.1911780000000007   F   F   F
  0.2796433563065427  0.3080985138599425  0.2856056282746666   F   F   F
  0.6128330000000020  0.4756670000000014  0.0947699999999969   F   F   F
  0.6138001731339725  0.4783003283670978  0.3897578897882513   F   F   F
  0.6961670000000026  0.3923330000000007  0.1911780000000007   F   F   F
  0.5293629992457192  0.3091772626899404  0.2877767669857076   F   F   F
  0.8628330000000020  0.4756670000000014  0.0947699999999969   F   F   F
  0.8653483395621610  0.4772726596568972  0.3767575655444141   F   F   F
  0.9461670000000026  0.3923330000000007  0.1911780000000007   F   F   F
  0.7781339928689642  0.3081403032352235  0.2855430151381874   F   F   F
  0.1128330000000020  0.7256670000000014  0.0947699999999969   F   F   F
  0.1110393356298214  0.7275448397718943  0.3825102246343727   F   F   F
  0.1961670000000026  0.6423330000000007  0.1911780000000007   F   F   F
  0.0294429697664097  0.5591048038797716  0.2845678933191492   F   F   F
  0.3628330000000020  0.7256670000000014  0.0947699999999969   F   F   F
  0.3660411548213881  0.7275633421781428  0.3825009034145738   F   F   F
  0.4461670000000026  0.6423330000000007  0.1911780000000007   F   F   F
  0.2794312902434302  0.5591008158907083  0.2845700178290353   F   F   F
  0.6128330000000020  0.7256670000000014  0.0947699999999969   F   F   F
  0.6112911859126633  0.7298056787623249  0.3818219187809256   F   F   F
  0.6961670000000026  0.6423330000000007  0.1911780000000007   F   F   F
  0.5304280612081724  0.5588869099893954  0.2856030479914576   F   F   F
  0.8628330000000020  0.7256670000000014  0.0947699999999969   F   F   F
  0.8679186390236290  0.7296882957418924  0.3817915480875340   F   F   F
  0.9461670000000026  0.6423330000000007  0.1911780000000007   F   F   F
  0.7781379846648635  0.5588691961007867  0.2855766463375513   F   F   F
  0.1128330000000020  0.9756670000000014  0.0947699999999969   F   F   F
  0.1089122241066198  0.9706866845285390  0.3818040942117355   F   F   F
  0.1961670000000026  0.8923330000000007  0.1911780000000007   F   F   F
  0.0297166079609037  0.8088357466378243  0.2863435305574282   F   F   F
  0.3628330000000020  0.9756670000000014  0.0947699999999969   F   F   F
  0.3613015228419059  0.9732313565578071  0.3767649305968183   F   F   F
  0.4461670000000026  0.8923330000000007  0.1911780000000007   F   F   F
  0.2794334239092015  0.8090982716479025  0.2845692355949823   F   F   F
  0.6128330000000020  0.9756670000000014  0.0947699999999969   F   F   F
  0.6111621466564636  0.9708130920670576  0.3817939658827209   F   F   F
  0.6961670000000026  0.8923330000000007  0.1911780000000007   F   F   F
  0.5288895307299324  0.8088745793737263  0.2863441036563467   F   F   F
  0.8628330000000020  0.9756670000000014  0.0947699999999969   F   F   F
  0.8626251510174575  0.9759309173428952  0.3770053972405257   F   F   F
  0.9461670000000026  0.8923330000000007  0.1911780000000007   F   F   F
  0.7792598079241388  0.8087685386038604  0.2845388783445839   F   F   F
  0.1790815430432378  0.1341338298634274  0.4361228530216686   F   F   F
  0.7045081253311325  0.6595451764843973  0.4361195430495586   F   F   F
  0.1960426995564562  0.6425382307900060  0.4350271911917686   F   F   F
  0.7040416706331898  0.1345516201362445  0.4359882170616055   F   F   F
  0.5293433254243088  0.3093341118392626  0.4413113346950522   T   T   T
 
  0.00000000E+00  0.00000000E+00  0.00000000E+00
  0.00000000E+00  0.00000000E+00  0.00000000E+00
  0.00000000E+00  0.00000000E+00  0.00000000E+00
  0.00000000E+00  0.00000000E+00  0.00000000E+00
  0.00000000E+00  0.00000000E+00  0.00000000E+00
  0.00000000E+00  0.00000000E+00  0.00000000E+00
  0.00000000E+00  0.00000000E+00  0.00000000E+00
  0.00000000E+00  0.00000000E+00  0.00000000E+00
  0.00000000E+00  0.00000000E+00  0.00000000E+00
  0.00000000E+00  0.00000000E+00  0.00000000E+00
  0.00000000E+00  0.00000000E+00  0.00000000E+00
  0.00000000E+00  0.00000000E+00  0.00000000E+00
  0.00000000E+00  0.00000000E+00  0.00000000E+00
  0.00000000E+00  0.00000000E+00  0.00000000E+00
  0.00000000E+00  0.00000000E+00  0.00000000E+00
  0.00000000E+00  0.00000000E+00  0.00000000E+00
  0.00000000E+00  0.00000000E+00  0.00000000E+00
  0.00000000E+00  0.00000000E+00  0.00000000E+00
  0.00000000E+00  0.00000000E+00  0.00000000E+00
  0.00000000E+00  0.00000000E+00  0.00000000E+00
  0.00000000E+00  0.00000000E+00  0.00000000E+00
  0.00000000E+00  0.00000000E+00  0.00000000E+00
  0.00000000E+00  0.00000000E+00  0.00000000E+00
  0.00000000E+00  0.00000000E+00  0.00000000E+00
  0.00000000E+00  0.00000000E+00  0.00000000E+00
  0.00000000E+00  0.00000000E+00  0.00000000E+00
  0.00000000E+00  0.00000000E+00  0.00000000E+00
  0.00000000E+00  0.00000000E+00  0.00000000E+00
  0.00000000E+00  0.00000000E+00  0.00000000E+00
  0.00000000E+00  0.00000000E+00  0.00000000E+00
  0.00000000E+00  0.00000000E+00  0.00000000E+00
  0.00000000E+00  0.00000000E+00  0.00000000E+00
  0.00000000E+00  0.00000000E+00  0.00000000E+00
  0.00000000E+00  0.00000000E+00  0.00000000E+00
  0.00000000E+00  0.00000000E+00  0.00000000E+00
  0.00000000E+00  0.00000000E+00  0.00000000E+00
  0.00000000E+00  0.00000000E+00  0.00000000E+00
  0.00000000E+00  0.00000000E+00  0.00000000E+00
  0.00000000E+00  0.00000000E+00  0.00000000E+00
  0.00000000E+00  0.00000000E+00  0.00000000E+00
  0.00000000E+00  0.00000000E+00  0.00000000E+00
  0.00000000E+00  0.00000000E+00  0.00000000E+00
  0.00000000E+00  0.00000000E+00  0.00000000E+00
  0.00000000E+00  0.00000000E+00  0.00000000E+00
  0.00000000E+00  0.00000000E+00  0.00000000E+00
  0.00000000E+00  0.00000000E+00  0.00000000E+00
  0.00000000E+00  0.00000000E+00  0.00000000E+00
  0.00000000E+00  0.00000000E+00  0.00000000E+00
  0.00000000E+00  0.00000000E+00  0.00000000E+00
  0.00000000E+00  0.00000000E+00  0.00000000E+00
  0.00000000E+00  0.00000000E+00  0.00000000E+00
  0.00000000E+00  0.00000000E+00  0.00000000E+00
  0.00000000E+00  0.00000000E+00  0.00000000E+00
  0.00000000E+00  0.00000000E+00  0.00000000E+00
  0.00000000E+00  0.00000000E+00  0.00000000E+00
  0.00000000E+00  0.00000000E+00  0.00000000E+00
  0.00000000E+00  0.00000000E+00  0.00000000E+00
  0.00000000E+00  0.00000000E+00  0.00000000E+00
  0.00000000E+00  0.00000000E+00  0.00000000E+00
  0.00000000E+00  0.00000000E+00  0.00000000E+00
  0.00000000E+00  0.00000000E+00  0.00000000E+00
  0.00000000E+00  0.00000000E+00  0.00000000E+00
  0.00000000E+00  0.00000000E+00  0.00000000E+00
  0.00000000E+00  0.00000000E+00  0.00000000E+00
  0.00000000E+00  0.00000000E+00  0.00000000E+00
  0.00000000E+00  0.00000000E+00  0.00000000E+00
  0.00000000E+00  0.00000000E+00  0.00000000E+00
  0.00000000E+00  0.00000000E+00  0.00000000E+00
  0.00000000E+00  0.00000000E+00  0.00000000E+00
