POSCAR                                  
   1.00000000000000     
    10.1116299999999999    0.0000000000000000    0.0000000000000000
    -5.0558149999999999    8.7569284500000002    0.0000000000000000
     0.0000000000000000    0.0000000000000000   21.3126459900000000
   Fe   Ni
    49    15
Selective dynamics
Direct
  0.0035932071346381  0.9977092089396453  0.2872391564720742   T   T   T
  0.5017810489211790  0.9992451053052130  0.2871236508056414   T   T   T
  0.7440990029968902  0.9989713289524680  0.2866728601597336   T   T   T
  0.2516941090389649  0.2516459680006894  0.2865979577078810   T   T   T
  0.0887320000000003  0.1614939999999976  0.0950365500000032   F   F   F
  0.0895664986248672  0.1613298142741074  0.3739986010157350   T   T   T
  0.3296259999999975  0.1660979999999981  0.0994980199999986   F   F   F
  0.3282563805749337  0.1671447488764170  0.3753978227360533   T   T   T
  0.1676629999999975  0.0809440000000023  0.1917224099999970   F   F   F
  0.5833299999999966  0.1655030000000011  0.0988736600000024   F   F   F
  0.5807996924310669  0.1595932132403100  0.3741331313819841   T   T   T
  0.4220779999999991  0.0874250000000032  0.1915611599999991   F   F   F
  0.8265150000000006  0.1665100000000024  0.0977019299999995   F   F   F
  0.8249239000843798  0.1633815032942033  0.3739651040142058   T   T   T
  0.6673759999999973  0.0832770000000025  0.1936207600000017   F   F   F
  0.0024509950229238  0.5122918260848216  0.2867973785897714   T   T   T
  0.2567545119131638  0.5080065710991879  0.2875351720128555   T   T   T
  0.4998396567264144  0.5001880600783596  0.2877216896306827   T   T   T
  0.3385990000000021  0.4158370000000033  0.0938409999999976   F   F   F
  0.3373764149960415  0.4190319693969376  0.3732792496508813   T   T   T
  0.7566997808592697  0.5088272016286302  0.2875412131177144   T   T   T
  0.5863360000000029  0.4222940000000008  0.0986728999999968   F   F   F
  0.5830415579032248  0.4204119266256270  0.3740921179449752   T   T   T
  0.4203279999999978  0.3267179999999996  0.1922648400000000   F   F   F
  0.8267710000000008  0.4167619999999985  0.0964369300000030   F   F   F
  0.8376595282985851  0.4241445897869238  0.3737494513298914   T   T   T
  0.6624929999999978  0.3354240000000033  0.1907982099999970   F   F   F
  0.9924946273281965  0.7459730063271635  0.2879161691444512   T   T   T
  0.2493953942121223  0.7452116101821631  0.2876602517072023   T   T   T
  0.0860460000000032  0.6708690000000033  0.0966438000000025   F   F   F
  0.0814577642155687  0.6641042247037010  0.3750988361208641   T   T   T
  0.5023249992839877  0.7477943511088289  0.2875697257089608   T   T   T
  0.3300589999999985  0.6613559999999978  0.0946321300000008   F   F   F
  0.3312419653793829  0.6615785350276761  0.3755015728159070   T   T   T
  0.1640700000000024  0.5890419999999992  0.1955836200000007   F   F   F
  0.7476319621407960  0.7498990304761439  0.2847305526057352   T   T   T
  0.5800819999999973  0.6609630000000024  0.0959703300000001   F   F   F
  0.5808560417885873  0.6591434534804748  0.3749108108500073   T   T   T
  0.8321370000000030  0.6619949999999974  0.0974750199999974   F   F   F
  0.8305096359481762  0.6606227215156543  0.3765762153744862   T   T   T
  0.6721440000000030  0.5852939999999975  0.1931376000000000   F   F   F
  0.9190749999999994  0.5873309999999989  0.1948790699999989   F   F   F
  0.0860360000000000  0.9163550000000029  0.0981502200000008   F   F   F
  0.0863318792104916  0.9204522737112385  0.3744608625768083   T   T   T
  0.3274299999999997  0.9193220000000011  0.0973765299999982   F   F   F
  0.3350540015370814  0.9218133569549977  0.3739097252558691   T   T   T
  0.1627429999999990  0.8315359999999998  0.1915065399999989   F   F   F
  0.6687829999999977  0.8308299999999988  0.1965008399999988   F   F   F
  0.9185230000000004  0.8270600000000030  0.1950313099999974   F   F   F
  0.2493851735941126  0.9978834887891769  0.2846349008219762   T   T   T
  0.0020936298873769  0.2500924048009530  0.2860720258212860   T   T   T
  0.5007350957739282  0.2526210968475571  0.2854656383531281   T   T   T
  0.7492511711465959  0.2530163282836780  0.2847350431893643   T   T   T
  0.9142409999999970  0.0792939999999973  0.1938200700000010   F   F   F
  0.0826080000000005  0.4170799999999986  0.0966946400000026   F   F   F
  0.0826434891116402  0.4165588617568430  0.3777205802697193   T   T   T
  0.1707729999999970  0.3343709999999973  0.1938938699999966   F   F   F
  0.9156699999999987  0.3364639999999994  0.1934147699999968   F   F   F
  0.4192359999999979  0.5847150000000028  0.1942085199999966   F   F   F
  0.5819070000000011  0.9152690000000021  0.0968538500000022   F   F   F
  0.5798473015375224  0.9139809919052598  0.3792033466791990   T   T   T
  0.4146700000000010  0.8342889999999983  0.1944476299999991   F   F   F
  0.8339989999999986  0.9145710000000022  0.0968451399999992   F   F   F
  0.8355514538901178  0.9169820046092501  0.3786665339749005   T   T   T
 
  0.00000000E+00  0.00000000E+00  0.00000000E+00
  0.00000000E+00  0.00000000E+00  0.00000000E+00
  0.00000000E+00  0.00000000E+00  0.00000000E+00
  0.00000000E+00  0.00000000E+00  0.00000000E+00
  0.00000000E+00  0.00000000E+00  0.00000000E+00
  0.00000000E+00  0.00000000E+00  0.00000000E+00
  0.00000000E+00  0.00000000E+00  0.00000000E+00
  0.00000000E+00  0.00000000E+00  0.00000000E+00
  0.00000000E+00  0.00000000E+00  0.00000000E+00
  0.00000000E+00  0.00000000E+00  0.00000000E+00
  0.00000000E+00  0.00000000E+00  0.00000000E+00
  0.00000000E+00  0.00000000E+00  0.00000000E+00
  0.00000000E+00  0.00000000E+00  0.00000000E+00
  0.00000000E+00  0.00000000E+00  0.00000000E+00
  0.00000000E+00  0.00000000E+00  0.00000000E+00
  0.00000000E+00  0.00000000E+00  0.00000000E+00
  0.00000000E+00  0.00000000E+00  0.00000000E+00
  0.00000000E+00  0.00000000E+00  0.00000000E+00
  0.00000000E+00  0.00000000E+00  0.00000000E+00
  0.00000000E+00  0.00000000E+00  0.00000000E+00
  0.00000000E+00  0.00000000E+00  0.00000000E+00
  0.00000000E+00  0.00000000E+00  0.00000000E+00
  0.00000000E+00  0.00000000E+00  0.00000000E+00
  0.00000000E+00  0.00000000E+00  0.00000000E+00
  0.00000000E+00  0.00000000E+00  0.00000000E+00
  0.00000000E+00  0.00000000E+00  0.00000000E+00
  0.00000000E+00  0.00000000E+00  0.00000000E+00
  0.00000000E+00  0.00000000E+00  0.00000000E+00
  0.00000000E+00  0.00000000E+00  0.00000000E+00
  0.00000000E+00  0.00000000E+00  0.00000000E+00
  0.00000000E+00  0.00000000E+00  0.00000000E+00
  0.00000000E+00  0.00000000E+00  0.00000000E+00
  0.00000000E+00  0.00000000E+00  0.00000000E+00
  0.00000000E+00  0.00000000E+00  0.00000000E+00
  0.00000000E+00  0.00000000E+00  0.00000000E+00
  0.00000000E+00  0.00000000E+00  0.00000000E+00
  0.00000000E+00  0.00000000E+00  0.00000000E+00
  0.00000000E+00  0.00000000E+00  0.00000000E+00
  0.00000000E+00  0.00000000E+00  0.00000000E+00
  0.00000000E+00  0.00000000E+00  0.00000000E+00
  0.00000000E+00  0.00000000E+00  0.00000000E+00
  0.00000000E+00  0.00000000E+00  0.00000000E+00
  0.00000000E+00  0.00000000E+00  0.00000000E+00
  0.00000000E+00  0.00000000E+00  0.00000000E+00
  0.00000000E+00  0.00000000E+00  0.00000000E+00
  0.00000000E+00  0.00000000E+00  0.00000000E+00
  0.00000000E+00  0.00000000E+00  0.00000000E+00
  0.00000000E+00  0.00000000E+00  0.00000000E+00
  0.00000000E+00  0.00000000E+00  0.00000000E+00
  0.00000000E+00  0.00000000E+00  0.00000000E+00
  0.00000000E+00  0.00000000E+00  0.00000000E+00
  0.00000000E+00  0.00000000E+00  0.00000000E+00
  0.00000000E+00  0.00000000E+00  0.00000000E+00
  0.00000000E+00  0.00000000E+00  0.00000000E+00
  0.00000000E+00  0.00000000E+00  0.00000000E+00
  0.00000000E+00  0.00000000E+00  0.00000000E+00
  0.00000000E+00  0.00000000E+00  0.00000000E+00
  0.00000000E+00  0.00000000E+00  0.00000000E+00
  0.00000000E+00  0.00000000E+00  0.00000000E+00
  0.00000000E+00  0.00000000E+00  0.00000000E+00
  0.00000000E+00  0.00000000E+00  0.00000000E+00
  0.00000000E+00  0.00000000E+00  0.00000000E+00
  0.00000000E+00  0.00000000E+00  0.00000000E+00
  0.00000000E+00  0.00000000E+00  0.00000000E+00
