POSCAR                                  
   3.54500000000000     
     0.5000000000000000   -2.0000000000000000   -0.5000000000000000
    -3.0000000000000000   -1.5000000000000000   -0.5000000000000000
     0.0000000000000000    0.0000000000000000   -4.0000000000000000
   Ni   Fe
    81    27
Direct
  0.7814640316019190  0.9621431137162381  0.1569140991979149
  0.5531034229706822  0.9252636711237875  0.0662067939109190
  0.8908677704112873  0.8141229358628931  0.0373553305542247
  0.7772665152862051  0.9625615894705438  0.4092269804388781
  0.5524137274240329  0.9255844523943995  0.3140686400722776
  0.8900509236946297  0.8120312132819605  0.2870565046860963
  0.6627594012648458  0.7763744377250217  0.1947843827678852
  0.4416189737955565  0.7383526874173109  0.1045275834528307
  0.2207182216778673  0.7059689301165619  0.0105396062673875
  0.7777999207155971  0.9623016638752540  0.6551636960029940
  0.3363506553192048  0.8880671123531672  0.4714584128941204
  0.1136359094399005  0.8506438259433529  0.3814796024340740
  0.6675419605163423  0.7773001848997706  0.4444025285738680
  0.2241115982684046  0.7034251046388093  0.2600784380949220
 -0.0013462218410880  0.6678485530562540  0.1668573940875817
  0.1125034196705295  0.5198153390797623  0.0477881561746355
  0.8849029683737578  0.4846776117766240  0.2039916373752191
  0.7809413929734725  0.9614087005441804  0.9077627319311870
  0.5542386877362759  0.9257793517052529  0.8146171322914356
  0.1113342600687523  0.8509957027873035  0.6266514767870225
  0.8902972616479479  0.8147522051983169  0.7879674333203377
  0.6672721665130525  0.7786614453741105  0.6928798706617879
  0.7757987186102373  0.6318011040453552  0.5728862925344721
  0.5574474286834789  0.5932890257580157  0.4814172873750950
  0.3326641589844123  0.5577186159984131  0.3890971436849268
  0.1115001445285998  0.5199999477067370  0.2955993842743730
  0.6649298583592400  0.4470846204079481  0.3602472534388382
  0.2241538425249012  0.3700199126111735  0.1762163928697157
 -0.0005468191146581  0.3325523674503146  0.0841796153512682
  0.7783894667151895  0.2973960793758465  0.2398226257037704
  0.5563178026760353  0.2609217220885979  0.1487362251481144
  0.3309988961402898  0.2231582095416476  0.0563121306226133
  0.8937208673069518  0.1491272819306941  0.1197236248588420
  0.6657420285165022  0.1119492124995616  0.0271572711052197
  0.3308273572388374  0.8876303754283521  0.9736154369029074
  0.6663858715857252  0.7754204492059803  0.9467161001982256
  0.4421214462704163  0.7419494979513466  0.8510109568664026
  0.2229058500952639  0.7053315203298313  0.7583067485549840
  0.0007394722843328  0.6664046732487450  0.6634377745424183
  0.7775614777176504  0.6298253451524769  0.8235013169121180
  0.5543496510989258  0.5931543380400598  0.7299414381279778
  0.3315749722682170  0.5577888589899599  0.6365785597895267
  0.8917725554032108  0.4801685051244401  0.7022586514541765
  0.6702341405939402  0.4429842823174309  0.6099626238292960
  0.4400034275550681  0.4069933316739231  0.5194638647407978
  0.2216266350726979  0.3721021602254537  0.4246885037138440
 -0.0014447791785479  0.3345440402930993  0.3330899900100961
  0.7803855685548060  0.2996161018607695  0.4905130160144929
  0.5527276582060715  0.2603708943682724  0.3982693365084688
  0.3314517428032290  0.2209857086961941  0.3047900408226273
  0.8919092769242861  0.1471272580496419  0.3709526171512671
  0.6669350598072394  0.1107187306208343  0.2777426674038397
  0.4422356437529462  0.0720497303133034  0.1859769238067838
  0.2206981713365282  0.0377517440923352  0.0936686374158128
  0.0040404799149195 -0.0003077819096105 -0.0002591792056658
 -0.0003250970523989  0.6681629131650290  0.9178992103755211
  0.5547036961769511  0.5907502262232787  0.9831899902695705
  0.3346487463968918  0.5538306943569292  0.8901869020790767
  0.1104492943703816  0.5171338876114354  0.7966505770930620
  0.8884852827907230  0.4821433742091784  0.9546144876245073
  0.6687407337132876  0.4424717105662207  0.8612994244374589
  0.4463227473565056  0.4061740814079597  0.7682253544514732
  0.2190171231334123  0.3698401858650103  0.6758821766343942
  0.7799595176544912  0.2969998764832800  0.7402622998899120
  0.5529955660131591  0.2574887928945459  0.6463340159333093
  0.1126339400223548  0.1842601168149698  0.4639884963521589
  0.8901603142085868  0.1474900289623170  0.6183810085378287
  0.6671209580263623  0.1098726716132886  0.5274450502073266
  0.4423224284041966  0.0738278356641694  0.4370473636509805
  0.0023434505344518 -0.0015668352310601  0.2497298475716947
  0.2241926485163609  0.3690369006735708  0.9269035544595030
  0.7764052150713211  0.2976043512844197  0.9906521925103721
  0.3332886224852542  0.2230648983112545  0.8072069085512031
  0.1103548947020318  0.1870385500944398  0.7123277122409892
  0.8863029563413868  0.1505685494164341  0.8708904676632900
  0.6664314760976513  0.1117692016770314  0.7782903449126837
  0.4419813435261770  0.0722496156279445  0.6825381075277352
  0.2234051926164216  0.0354727614064061  0.5921458052462202
  0.4420518620407857  0.0764428285944083  0.9356577238264039
  0.2218318345369287  0.0366615399992578  0.8436560764638896
  0.0044262286435175 -0.0021558280227106  0.7503215885796869
  0.3278093716251505  0.8866416228908305  0.2259783890215944
  0.1162405608073568  0.8526943963370862  0.1321013371380890
  0.7698534534220891  0.6255446627873488  0.0778455507455204
  0.5581901126069654  0.9187727435983116  0.5665803444226392
  0.8925959617823377  0.8172703664052924  0.5333351480870405
  0.4474333667102953  0.7383151705636368  0.3506885299089011
  0.7726852154995800  0.6304354659462330  0.3271058828561794
  0.5578036445126477  0.5910961515532385  0.2295169474207858
  0.3415182416713713  0.5490529961440362  0.1398567521755285
  0.6578421473046967  0.4496684951586372  0.1118939835702439
  0.4494957735967100  0.4075838723312875  0.0202477359922692
  0.3350702810279451  0.8853854715707947  0.7198372050076747
  0.4391171954130839  0.7462543216026172  0.6029510602970005
  0.2248500449139184  0.7035663156741133  0.5073362945017147
 -0.0039239987824913  0.6638023516277478  0.4214547537283158
  0.8945515835378697  0.4861247461328307  0.4555818673421186
  0.4496081716807876  0.4127682158260415  0.2633934909907031
  0.1164049691773409  0.8523637957092046  0.8762137575756572
  0.1052408517704509  0.5215489464666363  0.5427855736406880
  0.1123306743434642  0.1815909469876311  0.2170190524950970
  0.0071760839701481  0.3366043559803867  0.5794606602244925
  0.3230645778867712  0.2258240079082859  0.5553845749150592
  0.2169386682117641  0.0360111163855374  0.3400170416285556
  0.0038401260379541  0.3296978668610228  0.8370227940423748
  0.5533846665576939  0.2620736448074296  0.9011139727211105
  0.0043305461378398 -0.0034381336457745  0.4969001118885236
  0.1062916914829461  0.1904054608925272  0.9592507960666250
 
  0.00000000E+00  0.00000000E+00  0.00000000E+00
  0.00000000E+00  0.00000000E+00  0.00000000E+00
  0.00000000E+00  0.00000000E+00  0.00000000E+00
  0.00000000E+00  0.00000000E+00  0.00000000E+00
  0.00000000E+00  0.00000000E+00  0.00000000E+00
  0.00000000E+00  0.00000000E+00  0.00000000E+00
  0.00000000E+00  0.00000000E+00  0.00000000E+00
  0.00000000E+00  0.00000000E+00  0.00000000E+00
  0.00000000E+00  0.00000000E+00  0.00000000E+00
  0.00000000E+00  0.00000000E+00  0.00000000E+00
  0.00000000E+00  0.00000000E+00  0.00000000E+00
  0.00000000E+00  0.00000000E+00  0.00000000E+00
  0.00000000E+00  0.00000000E+00  0.00000000E+00
  0.00000000E+00  0.00000000E+00  0.00000000E+00
  0.00000000E+00  0.00000000E+00  0.00000000E+00
  0.00000000E+00  0.00000000E+00  0.00000000E+00
  0.00000000E+00  0.00000000E+00  0.00000000E+00
  0.00000000E+00  0.00000000E+00  0.00000000E+00
  0.00000000E+00  0.00000000E+00  0.00000000E+00
  0.00000000E+00  0.00000000E+00  0.00000000E+00
  0.00000000E+00  0.00000000E+00  0.00000000E+00
  0.00000000E+00  0.00000000E+00  0.00000000E+00
  0.00000000E+00  0.00000000E+00  0.00000000E+00
  0.00000000E+00  0.00000000E+00  0.00000000E+00
  0.00000000E+00  0.00000000E+00  0.00000000E+00
  0.00000000E+00  0.00000000E+00  0.00000000E+00
  0.00000000E+00  0.00000000E+00  0.00000000E+00
  0.00000000E+00  0.00000000E+00  0.00000000E+00
  0.00000000E+00  0.00000000E+00  0.00000000E+00
  0.00000000E+00  0.00000000E+00  0.00000000E+00
  0.00000000E+00  0.00000000E+00  0.00000000E+00
  0.00000000E+00  0.00000000E+00  0.00000000E+00
  0.00000000E+00  0.00000000E+00  0.00000000E+00
  0.00000000E+00  0.00000000E+00  0.00000000E+00
  0.00000000E+00  0.00000000E+00  0.00000000E+00
  0.00000000E+00  0.00000000E+00  0.00000000E+00
  0.00000000E+00  0.00000000E+00  0.00000000E+00
  0.00000000E+00  0.00000000E+00  0.00000000E+00
  0.00000000E+00  0.00000000E+00  0.00000000E+00
  0.00000000E+00  0.00000000E+00  0.00000000E+00
  0.00000000E+00  0.00000000E+00  0.00000000E+00
  0.00000000E+00  0.00000000E+00  0.00000000E+00
  0.00000000E+00  0.00000000E+00  0.00000000E+00
  0.00000000E+00  0.00000000E+00  0.00000000E+00
  0.00000000E+00  0.00000000E+00  0.00000000E+00
  0.00000000E+00  0.00000000E+00  0.00000000E+00
  0.00000000E+00  0.00000000E+00  0.00000000E+00
  0.00000000E+00  0.00000000E+00  0.00000000E+00
  0.00000000E+00  0.00000000E+00  0.00000000E+00
  0.00000000E+00  0.00000000E+00  0.00000000E+00
  0.00000000E+00  0.00000000E+00  0.00000000E+00
  0.00000000E+00  0.00000000E+00  0.00000000E+00
  0.00000000E+00  0.00000000E+00  0.00000000E+00
  0.00000000E+00  0.00000000E+00  0.00000000E+00
  0.00000000E+00  0.00000000E+00  0.00000000E+00
  0.00000000E+00  0.00000000E+00  0.00000000E+00
  0.00000000E+00  0.00000000E+00  0.00000000E+00
  0.00000000E+00  0.00000000E+00  0.00000000E+00
  0.00000000E+00  0.00000000E+00  0.00000000E+00
  0.00000000E+00  0.00000000E+00  0.00000000E+00
  0.00000000E+00  0.00000000E+00  0.00000000E+00
  0.00000000E+00  0.00000000E+00  0.00000000E+00
  0.00000000E+00  0.00000000E+00  0.00000000E+00
  0.00000000E+00  0.00000000E+00  0.00000000E+00
  0.00000000E+00  0.00000000E+00  0.00000000E+00
  0.00000000E+00  0.00000000E+00  0.00000000E+00
  0.00000000E+00  0.00000000E+00  0.00000000E+00
  0.00000000E+00  0.00000000E+00  0.00000000E+00
  0.00000000E+00  0.00000000E+00  0.00000000E+00
  0.00000000E+00  0.00000000E+00  0.00000000E+00
  0.00000000E+00  0.00000000E+00  0.00000000E+00
  0.00000000E+00  0.00000000E+00  0.00000000E+00
  0.00000000E+00  0.00000000E+00  0.00000000E+00
  0.00000000E+00  0.00000000E+00  0.00000000E+00
  0.00000000E+00  0.00000000E+00  0.00000000E+00
  0.00000000E+00  0.00000000E+00  0.00000000E+00
  0.00000000E+00  0.00000000E+00  0.00000000E+00
  0.00000000E+00  0.00000000E+00  0.00000000E+00
  0.00000000E+00  0.00000000E+00  0.00000000E+00
  0.00000000E+00  0.00000000E+00  0.00000000E+00
  0.00000000E+00  0.00000000E+00  0.00000000E+00
  0.00000000E+00  0.00000000E+00  0.00000000E+00
  0.00000000E+00  0.00000000E+00  0.00000000E+00
  0.00000000E+00  0.00000000E+00  0.00000000E+00
  0.00000000E+00  0.00000000E+00  0.00000000E+00
  0.00000000E+00  0.00000000E+00  0.00000000E+00
  0.00000000E+00  0.00000000E+00  0.00000000E+00
  0.00000000E+00  0.00000000E+00  0.00000000E+00
  0.00000000E+00  0.00000000E+00  0.00000000E+00
  0.00000000E+00  0.00000000E+00  0.00000000E+00
  0.00000000E+00  0.00000000E+00  0.00000000E+00
  0.00000000E+00  0.00000000E+00  0.00000000E+00
  0.00000000E+00  0.00000000E+00  0.00000000E+00
  0.00000000E+00  0.00000000E+00  0.00000000E+00
  0.00000000E+00  0.00000000E+00  0.00000000E+00
  0.00000000E+00  0.00000000E+00  0.00000000E+00
  0.00000000E+00  0.00000000E+00  0.00000000E+00
  0.00000000E+00  0.00000000E+00  0.00000000E+00
  0.00000000E+00  0.00000000E+00  0.00000000E+00
  0.00000000E+00  0.00000000E+00  0.00000000E+00
  0.00000000E+00  0.00000000E+00  0.00000000E+00
  0.00000000E+00  0.00000000E+00  0.00000000E+00
  0.00000000E+00  0.00000000E+00  0.00000000E+00
  0.00000000E+00  0.00000000E+00  0.00000000E+00
  0.00000000E+00  0.00000000E+00  0.00000000E+00
  0.00000000E+00  0.00000000E+00  0.00000000E+00
  0.00000000E+00  0.00000000E+00  0.00000000E+00
  0.00000000E+00  0.00000000E+00  0.00000000E+00
