POSCAR                                  
   1.00000000000000     
    10.1003100000000003    0.0000000000000000    0.0000000000000000
    -5.0501550000000002    8.7471250499999993    0.0000000000000000
     0.0000000000000000    0.0000000000000000   21.3016906000000006
   Ni   Fe
    29    35
Selective dynamics
Direct
  0.0018444714647090  0.0022192458456095  0.2854614197120297   T   T   T
  0.2530986738625876  0.0010808590050822  0.2872249819889127   T   T   T
  0.5007122826185632  0.9965455211483366  0.2871784465787383   T   T   T
  0.0018263596955108  0.2498372695547857  0.2861592574867287   T   T   T
  0.2551031760289815  0.2537837007960868  0.2866080564445927   T   T   T
  0.3344680000000011  0.1651460000000000  0.0963648700000022   F   F   F
  0.3303598433179668  0.1660421357291090  0.3808443277395211   T   T   T
  0.7500539169826892  0.2492655242967982  0.2874542268274648   T   T   T
  0.4183749999999975  0.0839399999999983  0.1926431699999966   F   F   F
  0.8320319999999981  0.1658839999999984  0.0982103899999984   F   F   F
  0.8318867662482659  0.1644335149034216  0.3798537410341519   T   T   T
  0.6679699999999968  0.0847229999999968  0.1942148899999978   F   F   F
  0.0037491590978570  0.5007854173709290  0.2892076624611076   T   T   T
  0.7493496922737287  0.5010312242609855  0.2881493338576288   T   T   T
  0.5831019999999967  0.4132040000000003  0.0968384399999991   F   F   F
  0.5807662307302720  0.4175542076832820  0.3797013293313924   T   T   T
  0.4196099999999987  0.3333709999999996  0.1926649500000011   F   F   F
  0.8311970000000031  0.4147589999999965  0.0984258399999973   F   F   F
  0.8325280817967847  0.4177156560262203  0.3812938356280183   T   T   T
  0.9185590000000019  0.3350160000000031  0.1942090800000003   F   F   F
  0.0042848008401023  0.7495935788073455  0.2876617930694853   T   T   T
  0.0819509999999966  0.6657039999999981  0.0974792700000009   F   F   F
  0.0887823639452309  0.6697016203786039  0.3812386557679769   T   T   T
  0.7456368244571127  0.7455301058004259  0.2871747960176092   T   T   T
  0.4173729999999978  0.5835239999999970  0.1947546600000010   F   F   F
  0.9155080000000027  0.5846190000000036  0.1939509500000014   F   F   F
  0.1668289999999999  0.8349079999999987  0.1930909000000014   F   F   F
  0.4171529999999990  0.8333879999999994  0.1953118599999968   F   F   F
  0.9198510000000013  0.8326369999999983  0.1939207499999966   F   F   F
  0.7502416092494711  0.9912665398594421  0.2865663255818229   T   T   T
  0.0847580000000008  0.1693270000000027  0.0938892599999974   F   F   F
  0.0777004470920815  0.1649593037872735  0.3759730329096560   T   T   T
  0.5098977804423855  0.2552402668435388  0.2872685012607072   T   T   T
  0.1713960000000014  0.0833930000000009  0.1938812599999977   F   F   F
  0.5877610000000004  0.1693130000000025  0.0961871700000003   F   F   F
  0.5718709382358090  0.1611126347762094  0.3747899603780065   T   T   T
  0.9169309999999982  0.0858149999999966  0.1926260400000004   F   F   F
  0.2553701144570876  0.5068527321640720  0.2888157896273263   T   T   T
  0.0743840000000020  0.4150959999999984  0.0974467500000031   F   F   F
  0.0942823451411390  0.4114426082800136  0.3764653094111850   T   T   T
  0.4954842150134311  0.4998539369687254  0.2887789625789879   T   T   T
  0.3391719999999978  0.4151450000000025  0.0969900099999990   F   F   F
  0.3339884096177552  0.4268807348094610  0.3778434427149924   T   T   T
  0.1708140000000000  0.3372420000000034  0.1940273100000027   F   F   F
  0.6726469999999978  0.3359809999999968  0.1945244099999996   F   F   F
  0.2559919250366700  0.7455062551861632  0.2896497276860965   T   T   T
  0.5006471545406511  0.7475648268403258  0.2898140049367552   T   T   T
  0.3320849999999993  0.6626210000000015  0.0993602200000012   F   F   F
  0.3399574938290084  0.6705551654140365  0.3771351023856739   T   T   T
  0.1647060000000025  0.5862709999999964  0.1958487400000024   F   F   F
  0.5857939999999999  0.6682610000000011  0.0968404799999973   F   F   F
  0.5752206668746046  0.6635228266798515  0.3767271473622850   T   T   T
  0.8308809999999980  0.6587749999999986  0.0965898999999979   F   F   F
  0.8442075136067004  0.6830799549060519  0.3779134256079869   T   T   T
  0.6676250000000010  0.5842620000000025  0.1937215600000002   F   F   F
  0.0823549999999997  0.9142709999999994  0.0946494200000032   F   F   F
  0.0778136093162028  0.9123781645632522  0.3768413656078399   T   T   T
  0.3339440000000025  0.9158430000000024  0.0982501700000000   F   F   F
  0.3388708832688410  0.9185410333186644  0.3769234085406047   T   T   T
  0.5823159999999987  0.9186520000000016  0.0990234000000001   F   F   F
  0.5858435217111257  0.9117245028906061  0.3751696991005460   T   T   T
  0.8341939999999965  0.9144939999999977  0.0965056900000008   F   F   F
  0.8282978150606006  0.9172597529528257  0.3757111645139848   T   T   T
  0.6684139999999985  0.8335110000000014  0.1951178999999996   F   F   F
 
  0.00000000E+00  0.00000000E+00  0.00000000E+00
  0.00000000E+00  0.00000000E+00  0.00000000E+00
  0.00000000E+00  0.00000000E+00  0.00000000E+00
  0.00000000E+00  0.00000000E+00  0.00000000E+00
  0.00000000E+00  0.00000000E+00  0.00000000E+00
  0.00000000E+00  0.00000000E+00  0.00000000E+00
  0.00000000E+00  0.00000000E+00  0.00000000E+00
  0.00000000E+00  0.00000000E+00  0.00000000E+00
  0.00000000E+00  0.00000000E+00  0.00000000E+00
  0.00000000E+00  0.00000000E+00  0.00000000E+00
  0.00000000E+00  0.00000000E+00  0.00000000E+00
  0.00000000E+00  0.00000000E+00  0.00000000E+00
  0.00000000E+00  0.00000000E+00  0.00000000E+00
  0.00000000E+00  0.00000000E+00  0.00000000E+00
  0.00000000E+00  0.00000000E+00  0.00000000E+00
  0.00000000E+00  0.00000000E+00  0.00000000E+00
  0.00000000E+00  0.00000000E+00  0.00000000E+00
  0.00000000E+00  0.00000000E+00  0.00000000E+00
  0.00000000E+00  0.00000000E+00  0.00000000E+00
  0.00000000E+00  0.00000000E+00  0.00000000E+00
  0.00000000E+00  0.00000000E+00  0.00000000E+00
  0.00000000E+00  0.00000000E+00  0.00000000E+00
  0.00000000E+00  0.00000000E+00  0.00000000E+00
  0.00000000E+00  0.00000000E+00  0.00000000E+00
  0.00000000E+00  0.00000000E+00  0.00000000E+00
  0.00000000E+00  0.00000000E+00  0.00000000E+00
  0.00000000E+00  0.00000000E+00  0.00000000E+00
  0.00000000E+00  0.00000000E+00  0.00000000E+00
  0.00000000E+00  0.00000000E+00  0.00000000E+00
  0.00000000E+00  0.00000000E+00  0.00000000E+00
  0.00000000E+00  0.00000000E+00  0.00000000E+00
  0.00000000E+00  0.00000000E+00  0.00000000E+00
  0.00000000E+00  0.00000000E+00  0.00000000E+00
  0.00000000E+00  0.00000000E+00  0.00000000E+00
  0.00000000E+00  0.00000000E+00  0.00000000E+00
  0.00000000E+00  0.00000000E+00  0.00000000E+00
  0.00000000E+00  0.00000000E+00  0.00000000E+00
  0.00000000E+00  0.00000000E+00  0.00000000E+00
  0.00000000E+00  0.00000000E+00  0.00000000E+00
  0.00000000E+00  0.00000000E+00  0.00000000E+00
  0.00000000E+00  0.00000000E+00  0.00000000E+00
  0.00000000E+00  0.00000000E+00  0.00000000E+00
  0.00000000E+00  0.00000000E+00  0.00000000E+00
  0.00000000E+00  0.00000000E+00  0.00000000E+00
  0.00000000E+00  0.00000000E+00  0.00000000E+00
  0.00000000E+00  0.00000000E+00  0.00000000E+00
  0.00000000E+00  0.00000000E+00  0.00000000E+00
  0.00000000E+00  0.00000000E+00  0.00000000E+00
  0.00000000E+00  0.00000000E+00  0.00000000E+00
  0.00000000E+00  0.00000000E+00  0.00000000E+00
  0.00000000E+00  0.00000000E+00  0.00000000E+00
  0.00000000E+00  0.00000000E+00  0.00000000E+00
  0.00000000E+00  0.00000000E+00  0.00000000E+00
  0.00000000E+00  0.00000000E+00  0.00000000E+00
  0.00000000E+00  0.00000000E+00  0.00000000E+00
  0.00000000E+00  0.00000000E+00  0.00000000E+00
  0.00000000E+00  0.00000000E+00  0.00000000E+00
  0.00000000E+00  0.00000000E+00  0.00000000E+00
  0.00000000E+00  0.00000000E+00  0.00000000E+00
  0.00000000E+00  0.00000000E+00  0.00000000E+00
  0.00000000E+00  0.00000000E+00  0.00000000E+00
  0.00000000E+00  0.00000000E+00  0.00000000E+00
  0.00000000E+00  0.00000000E+00  0.00000000E+00
  0.00000000E+00  0.00000000E+00  0.00000000E+00
