POSCAR                                  
   1.00000000000000     
    10.0267700000000008    0.0000000000000000    0.0000000000000000
    -5.0133850000000004    8.6834375399999999    0.0000000000000000
     0.0000000000000000    0.0000000000000000   21.1891795599999995
   Ni   Fe
    49    15
Selective dynamics
Direct
  0.0001000355109121  0.9993603026517128  0.2861660924494097   T   T   T
  0.2488267706356907  0.9997080194399276  0.2843296072445213   T   T   T
  0.4988862083986988  0.9987161597438006  0.2857276102603851   T   T   T
  0.7497217469955680  0.9988019740972431  0.2871942925136953   T   T   T
  0.0021247386680849  0.2503340507680528  0.2858383748756339   T   T   T
  0.2513857701038806  0.2513949483309488  0.2836203331997314   T   T   T
  0.0828819999999979  0.1663319999999970  0.0956764299999975   F   F   F
  0.0878253260651188  0.1701527072626427  0.3799802038588990   T   T   T
  0.4983571275183449  0.2477468260349412  0.2843030666669312   T   T   T
  0.3329390000000032  0.1668579999999977  0.0957422099999974   F   F   F
  0.3337056455333137  0.1691534498396032  0.3791508938584149   T   T   T
  0.7513885660719226  0.2513274145960683  0.2856156862645654   T   T   T
  0.5823070000000001  0.1672009999999986  0.0967031100000000   F   F   F
  0.5871605329838026  0.1687670257656794  0.3800946769633121   T   T   T
  0.8340320000000006  0.1667240000000021  0.0964507099999992   F   F   F
  0.8316143463012619  0.1690458184282123  0.3804592373144386   T   T   T
  0.6655810000000031  0.0830550000000017  0.1925825200000020   F   F   F
  0.9163970000000035  0.0820310000000006  0.1920493300000032   F   F   F
  0.0011503176289263  0.4979229793186690  0.2836632763523189   T   T   T
  0.0809220000000010  0.4160970000000006  0.0959476600000002   F   F   F
  0.0862609961059387  0.4191852379836225  0.3781112281439345   T   T   T
  0.1661179999999973  0.3339519999999965  0.1920754100000011   F   F   F
  0.7483303731070717  0.4992355291107872  0.2839486739183419   T   T   T
  0.5835730000000012  0.4161720000000031  0.0959334599999977   F   F   F
  0.5818876052973103  0.4186587575098051  0.3771354964328635   T   T   T
  0.9994930467307613  0.7484770496057830  0.2864479019449520   T   T   T
  0.2483741026029871  0.7461701307502370  0.2850263304878387   T   T   T
  0.0837580000000031  0.6681039999999996  0.0947972499999992   F   F   F
  0.0798431057345992  0.6622203459726840  0.3800217975301311   T   T   T
  0.4979463803915410  0.7453621624336805  0.2864484529869309   T   T   T
  0.3329740000000001  0.6672769999999986  0.0943877999999998   F   F   F
  0.3347381644844597  0.6652352302124778  0.3800254090115436   T   T   T
  0.7471592646005883  0.7459734523305639  0.2856535591028961   T   T   T
  0.5829809999999966  0.6666820000000016  0.0945095000000009   F   F   F
  0.5794799078144319  0.6646873322894390  0.3798214354723571   T   T   T
  0.4166099999999986  0.5820020000000028  0.1908166300000005   F   F   F
  0.8339590000000001  0.6677060000000026  0.0949789399999972   F   F   F
  0.8319452141758999  0.6618253033556563  0.3802288561622282   T   T   T
  0.9170829999999981  0.5832389999999990  0.1907943100000011   F   F   F
  0.0829170000000019  0.9168579999999977  0.0951861300000019   F   F   F
  0.0841690196241327  0.9163394660898601  0.3798563612100709   T   T   T
  0.3342060000000018  0.9170540000000003  0.0953817299999997   F   F   F
  0.3359569244599925  0.9171295886458908  0.3792332667017778   T   T   T
  0.1667089999999973  0.8352420000000009  0.1913654600000001   F   F   F
  0.4170349999999985  0.8321490000000011  0.1920586099999966   F   F   F
  0.8323310000000035  0.9171499999999995  0.0963365400000029   F   F   F
  0.8310319424936912  0.9168585688006140  0.3799443905176473   T   T   T
  0.6662389999999974  0.8333700000000022  0.1923408500000008   F   F   F
  0.9170590000000018  0.8331950000000035  0.1921617699999985   F   F   F
  0.1616849999999985  0.0821150000000017  0.1913060600000023   F   F   F
  0.4160749999999993  0.0780710000000013  0.1917726000000002   F   F   F
  0.2536396599991046  0.5010808247910058  0.2848805571801253   T   T   T
  0.4949714538965684  0.4948174099949111  0.2817102821460986   T   T   T
  0.3313410000000019  0.4171430000000029  0.0957761199999965   F   F   F
  0.3357169169558620  0.4214975459116436  0.3725983530250574   T   T   T
  0.4163840000000008  0.3314430000000002  0.1925219600000005   F   F   F
  0.8335480000000004  0.4183900000000023  0.0944877700000006   F   F   F
  0.8339286400604973  0.4184232548446841  0.3751868214143654   T   T   T
  0.6673240000000007  0.3324059999999989  0.1943547899999984   F   F   F
  0.9144640000000024  0.3269549999999981  0.1939650400000019   F   F   F
  0.1691420000000008  0.5883340000000032  0.1894778599999967   F   F   F
  0.6696159999999978  0.5892890000000008  0.1898600700000017   F   F   F
  0.5831039999999987  0.9165149999999969  0.0958349400000031   F   F   F
  0.5837514284272675  0.9191962972539032  0.3754867925787285   T   T   T
 
  0.00000000E+00  0.00000000E+00  0.00000000E+00
  0.00000000E+00  0.00000000E+00  0.00000000E+00
  0.00000000E+00  0.00000000E+00  0.00000000E+00
  0.00000000E+00  0.00000000E+00  0.00000000E+00
  0.00000000E+00  0.00000000E+00  0.00000000E+00
  0.00000000E+00  0.00000000E+00  0.00000000E+00
  0.00000000E+00  0.00000000E+00  0.00000000E+00
  0.00000000E+00  0.00000000E+00  0.00000000E+00
  0.00000000E+00  0.00000000E+00  0.00000000E+00
  0.00000000E+00  0.00000000E+00  0.00000000E+00
  0.00000000E+00  0.00000000E+00  0.00000000E+00
  0.00000000E+00  0.00000000E+00  0.00000000E+00
  0.00000000E+00  0.00000000E+00  0.00000000E+00
  0.00000000E+00  0.00000000E+00  0.00000000E+00
  0.00000000E+00  0.00000000E+00  0.00000000E+00
  0.00000000E+00  0.00000000E+00  0.00000000E+00
  0.00000000E+00  0.00000000E+00  0.00000000E+00
  0.00000000E+00  0.00000000E+00  0.00000000E+00
  0.00000000E+00  0.00000000E+00  0.00000000E+00
  0.00000000E+00  0.00000000E+00  0.00000000E+00
  0.00000000E+00  0.00000000E+00  0.00000000E+00
  0.00000000E+00  0.00000000E+00  0.00000000E+00
  0.00000000E+00  0.00000000E+00  0.00000000E+00
  0.00000000E+00  0.00000000E+00  0.00000000E+00
  0.00000000E+00  0.00000000E+00  0.00000000E+00
  0.00000000E+00  0.00000000E+00  0.00000000E+00
  0.00000000E+00  0.00000000E+00  0.00000000E+00
  0.00000000E+00  0.00000000E+00  0.00000000E+00
  0.00000000E+00  0.00000000E+00  0.00000000E+00
  0.00000000E+00  0.00000000E+00  0.00000000E+00
  0.00000000E+00  0.00000000E+00  0.00000000E+00
  0.00000000E+00  0.00000000E+00  0.00000000E+00
  0.00000000E+00  0.00000000E+00  0.00000000E+00
  0.00000000E+00  0.00000000E+00  0.00000000E+00
  0.00000000E+00  0.00000000E+00  0.00000000E+00
  0.00000000E+00  0.00000000E+00  0.00000000E+00
  0.00000000E+00  0.00000000E+00  0.00000000E+00
  0.00000000E+00  0.00000000E+00  0.00000000E+00
  0.00000000E+00  0.00000000E+00  0.00000000E+00
  0.00000000E+00  0.00000000E+00  0.00000000E+00
  0.00000000E+00  0.00000000E+00  0.00000000E+00
  0.00000000E+00  0.00000000E+00  0.00000000E+00
  0.00000000E+00  0.00000000E+00  0.00000000E+00
  0.00000000E+00  0.00000000E+00  0.00000000E+00
  0.00000000E+00  0.00000000E+00  0.00000000E+00
  0.00000000E+00  0.00000000E+00  0.00000000E+00
  0.00000000E+00  0.00000000E+00  0.00000000E+00
  0.00000000E+00  0.00000000E+00  0.00000000E+00
  0.00000000E+00  0.00000000E+00  0.00000000E+00
  0.00000000E+00  0.00000000E+00  0.00000000E+00
  0.00000000E+00  0.00000000E+00  0.00000000E+00
  0.00000000E+00  0.00000000E+00  0.00000000E+00
  0.00000000E+00  0.00000000E+00  0.00000000E+00
  0.00000000E+00  0.00000000E+00  0.00000000E+00
  0.00000000E+00  0.00000000E+00  0.00000000E+00
  0.00000000E+00  0.00000000E+00  0.00000000E+00
  0.00000000E+00  0.00000000E+00  0.00000000E+00
  0.00000000E+00  0.00000000E+00  0.00000000E+00
  0.00000000E+00  0.00000000E+00  0.00000000E+00
  0.00000000E+00  0.00000000E+00  0.00000000E+00
  0.00000000E+00  0.00000000E+00  0.00000000E+00
  0.00000000E+00  0.00000000E+00  0.00000000E+00
  0.00000000E+00  0.00000000E+00  0.00000000E+00
  0.00000000E+00  0.00000000E+00  0.00000000E+00
