POSCAR                                  
   3.57500000000000     
     2.0000000000000000    0.0000000000000000    0.0000000000000000
     0.0000000000000000    2.0000000000000000    0.0000000000000000
     0.0000000000000000    0.0000000000000000    2.0000000000000000
   Ni   Fe
     8    24
Direct
  0.9988508061551329  0.0000540474613828  0.5008418077093566
  0.0023690356674990  0.2517872627735471  0.7490104526878980
  0.2496420269531043  0.9999509808004277  0.7497030658083759
  0.9999050723463796  0.4995412876379746  0.4985424895864625
  0.9978916623372385  0.7510556351906459  0.7450767694056637
  0.2501624960500166  0.4990553364180741  0.2534341148708492
  0.7560539706901181  0.2503130146617494  0.5002744484382973
  0.7547451181554408  0.2499152687509394  0.9989146586490776
  0.9988826752415392  0.0008816511878180  0.9952422603319775
  0.0049012056833391  0.2478084792144628  0.2508189636780429
  0.2467604810025392  0.9973388636653553  0.2526755454577128
  0.2427710912414724  0.2488510845007781  0.4990145891149353
  0.2468965716690406  0.5041576230940166  0.7454785764436878
  0.5029656915546710  0.0011022805081282  0.5031620508712891
  0.4982372426228920  0.2515851965722149  0.7509568832414431
  0.7513472898439204  0.0033521370846756  0.7469988027220822
  0.9993432890489871  0.4970564355493821  0.0008116653825780
  0.9993028110996249  0.7467027714178300  0.2527155617277970
  0.2449802642096017  0.2503706352861315  0.0020314645362518
  0.2492970349993087  0.7543190918668685  0.5016075136192626
  0.4987786547373219  0.9974535299437264  0.9973990462342002
  0.5039252517131416  0.2456532785717869  0.2498066476262295
  0.5009674010195226  0.5002393907183702  0.4984396978649102
  0.4964373550761465  0.7533968307946211  0.7474863067411945
  0.7570833822976297  0.0020253271980408  0.2532914811061104
  0.7552454093152292  0.4996582352765984  0.7457974074025273
  0.2497475840932282  0.7497869629790657  0.9989391723098890
  0.4970294847982473  0.5031297486200259  0.0042208133756887
  0.4977452840092838  0.7497147702592315  0.2534633184882864
  0.7522870008947677  0.4935536642450629  0.2530659818372740
  0.7478435191352801  0.7504712920613912  0.5007924196259097
  0.7476038363383850  0.7497178856896625  0.9999860231047322
 
  0.00000000E+00  0.00000000E+00  0.00000000E+00
  0.00000000E+00  0.00000000E+00  0.00000000E+00
  0.00000000E+00  0.00000000E+00  0.00000000E+00
  0.00000000E+00  0.00000000E+00  0.00000000E+00
  0.00000000E+00  0.00000000E+00  0.00000000E+00
  0.00000000E+00  0.00000000E+00  0.00000000E+00
  0.00000000E+00  0.00000000E+00  0.00000000E+00
  0.00000000E+00  0.00000000E+00  0.00000000E+00
  0.00000000E+00  0.00000000E+00  0.00000000E+00
  0.00000000E+00  0.00000000E+00  0.00000000E+00
  0.00000000E+00  0.00000000E+00  0.00000000E+00
  0.00000000E+00  0.00000000E+00  0.00000000E+00
  0.00000000E+00  0.00000000E+00  0.00000000E+00
  0.00000000E+00  0.00000000E+00  0.00000000E+00
  0.00000000E+00  0.00000000E+00  0.00000000E+00
  0.00000000E+00  0.00000000E+00  0.00000000E+00
  0.00000000E+00  0.00000000E+00  0.00000000E+00
  0.00000000E+00  0.00000000E+00  0.00000000E+00
  0.00000000E+00  0.00000000E+00  0.00000000E+00
  0.00000000E+00  0.00000000E+00  0.00000000E+00
  0.00000000E+00  0.00000000E+00  0.00000000E+00
  0.00000000E+00  0.00000000E+00  0.00000000E+00
  0.00000000E+00  0.00000000E+00  0.00000000E+00
  0.00000000E+00  0.00000000E+00  0.00000000E+00
  0.00000000E+00  0.00000000E+00  0.00000000E+00
  0.00000000E+00  0.00000000E+00  0.00000000E+00
  0.00000000E+00  0.00000000E+00  0.00000000E+00
  0.00000000E+00  0.00000000E+00  0.00000000E+00
  0.00000000E+00  0.00000000E+00  0.00000000E+00
  0.00000000E+00  0.00000000E+00  0.00000000E+00
  0.00000000E+00  0.00000000E+00  0.00000000E+00
  0.00000000E+00  0.00000000E+00  0.00000000E+00
