POSCAR                                  
   1.00000000000000     
     9.9295008700000000    0.0000000000000000    0.0000000000000000
     3.3098336200000000    9.3616232000000004    0.0000000000000000
     0.0000000000000000    0.0000000000000000   21.0805526299999997
   Fe
    64
Selective dynamics
Direct
  0.0873888899999997  0.1626111100000003  0.0948741699999971   F   F   F
  0.0869354671514841  0.1628552078715941  0.2850622229401552   T   T   T
  0.2123888899999997  0.0376111100000003  0.1910220700000025   F   F   F
  0.2117378516768085  0.0371408944735379  0.3781641661183102   T   T   T
  0.3373888899999997  0.1626111100000003  0.0948741699999971   F   F   F
  0.3369554786483064  0.1629814410944732  0.2847017455500307   T   T   T
  0.4623888899999997  0.0376111100000003  0.1910220700000025   F   F   F
  0.4616977418323316  0.0376529231107980  0.3774884855137373   T   T   T
  0.5873888899999997  0.1626111100000003  0.0948741699999971   F   F   F
  0.5868950882827306  0.1630785301611581  0.2844365029012366   T   T   T
  0.7123888899999997  0.0376111100000003  0.1910220700000025   F   F   F
  0.7112767612890778  0.0388033951358295  0.3781400740531069   T   T   T
  0.8373888899999997  0.1626111100000003  0.0948741699999971   F   F   F
  0.8367855797531192  0.1634400129661699  0.2845529967273919   T   T   T
  0.9623888899999997  0.0376111100000003  0.1910220700000025   F   F   F
  0.9616982301921624  0.0381361325328839  0.3780194621692701   T   T   T
  0.0873888899999997  0.4126111100000003  0.0948741699999971   F   F   F
  0.0876323493982483  0.4122714165702490  0.2844879779445080   T   T   T
  0.2123888899999997  0.2876111100000003  0.1910220700000025   F   F   F
  0.2123144013138045  0.2868498136758078  0.3780462750636673   T   T   T
  0.3373888899999997  0.4126111100000003  0.0948741699999971   F   F   F
  0.3379035236328463  0.4121177138173948  0.2842038585656965   T   T   T
  0.4623888899999997  0.2876111100000003  0.1910220700000025   F   F   F
  0.4626569988681482  0.2879961999252032  0.3778715894232789   T   T   T
  0.5873888899999997  0.4126111100000003  0.0948741699999971   F   F   F
  0.5873907139803620  0.4129186672154788  0.2840857335557487   T   T   T
  0.7123888899999997  0.2876111100000003  0.1910220700000025   F   F   F
  0.7119520808814812  0.2882581456653384  0.3776849366791808   T   T   T
  0.8373888899999997  0.4126111100000003  0.0948741699999971   F   F   F
  0.8370850252385367  0.4130697673146742  0.2845486620474063   T   T   T
  0.9623888899999997  0.2876111100000003  0.1910220700000025   F   F   F
  0.9623178462736632  0.2883477713805291  0.3775740283298816   T   T   T
  0.0873888899999997  0.6626111100000003  0.0948741699999971   F   F   F
  0.0879797599021543  0.6619633216931078  0.2850020779979232   T   T   T
  0.2123888899999997  0.5376111100000003  0.1910220700000025   F   F   F
  0.2127874110725330  0.5365046884988871  0.3777299035373929   T   T   T
  0.3373888899999997  0.6626111100000003  0.0948741699999971   F   F   F
  0.3381365398214058  0.6614698987229914  0.2844485673732038   T   T   T
  0.4623888899999997  0.5376111100000003  0.1910220700000025   F   F   F
  0.4625743976565033  0.5373705568295364  0.3777866391188098   T   T   T
  0.5873888899999997  0.6626111100000003  0.0948741699999971   F   F   F
  0.5876886678797462  0.6625739317162598  0.2844867288870034   T   T   T
  0.7123888899999997  0.5376111100000003  0.1910220700000025   F   F   F
  0.7124030143513522  0.5379232586036906  0.3777972783543646   T   T   T
  0.8373888899999997  0.6626111100000003  0.0948741699999971   F   F   F
  0.8377873090443870  0.6624025351161222  0.2847175972339215   T   T   T
  0.9623888899999997  0.5376111100000003  0.1910220700000025   F   F   F
  0.9628525571399109  0.5376230051810396  0.3779416343155830   T   T   T
  0.0873888899999997  0.9126111100000003  0.0948741699999971   F   F   F
  0.0873262034947757  0.9124995591468803  0.2854511921424674   T   T   T
  0.2123888899999997  0.7876111100000003  0.1910220700000025   F   F   F
  0.2131909864495967  0.7867952875302748  0.3777648516320227   T   T   T
  0.3373888899999997  0.9126111100000003  0.0948741699999971   F   F   F
  0.3376254439377746  0.9122124370989368  0.2850878353932487   T   T   T
  0.4623888899999997  0.7876111100000003  0.1910220700000025   F   F   F
  0.4635466889278845  0.7867732554748343  0.3780769386916205   T   T   T
  0.5873888899999997  0.9126111100000003  0.0948741699999971   F   F   F
  0.5872671263936127  0.9128133436221972  0.2850684123352138   T   T   T
  0.7123888899999997  0.7876111100000003  0.1910220700000025   F   F   F
  0.7125855167290140  0.7876966142338802  0.3777589269173376   T   T   T
  0.8373888899999997  0.9126111100000003  0.0948741699999971   F   F   F
  0.8370182163063191  0.9129144497512200  0.2852302089669436   T   T   T
  0.9623888899999997  0.7876111100000003  0.1910220700000025   F   F   F
  0.9628090268877969  0.7876528915890404  0.3781741885215482   T   T   T
 
  0.00000000E+00  0.00000000E+00  0.00000000E+00
  0.00000000E+00  0.00000000E+00  0.00000000E+00
  0.00000000E+00  0.00000000E+00  0.00000000E+00
  0.00000000E+00  0.00000000E+00  0.00000000E+00
  0.00000000E+00  0.00000000E+00  0.00000000E+00
  0.00000000E+00  0.00000000E+00  0.00000000E+00
  0.00000000E+00  0.00000000E+00  0.00000000E+00
  0.00000000E+00  0.00000000E+00  0.00000000E+00
  0.00000000E+00  0.00000000E+00  0.00000000E+00
  0.00000000E+00  0.00000000E+00  0.00000000E+00
  0.00000000E+00  0.00000000E+00  0.00000000E+00
  0.00000000E+00  0.00000000E+00  0.00000000E+00
  0.00000000E+00  0.00000000E+00  0.00000000E+00
  0.00000000E+00  0.00000000E+00  0.00000000E+00
  0.00000000E+00  0.00000000E+00  0.00000000E+00
  0.00000000E+00  0.00000000E+00  0.00000000E+00
  0.00000000E+00  0.00000000E+00  0.00000000E+00
  0.00000000E+00  0.00000000E+00  0.00000000E+00
  0.00000000E+00  0.00000000E+00  0.00000000E+00
  0.00000000E+00  0.00000000E+00  0.00000000E+00
  0.00000000E+00  0.00000000E+00  0.00000000E+00
  0.00000000E+00  0.00000000E+00  0.00000000E+00
  0.00000000E+00  0.00000000E+00  0.00000000E+00
  0.00000000E+00  0.00000000E+00  0.00000000E+00
  0.00000000E+00  0.00000000E+00  0.00000000E+00
  0.00000000E+00  0.00000000E+00  0.00000000E+00
  0.00000000E+00  0.00000000E+00  0.00000000E+00
  0.00000000E+00  0.00000000E+00  0.00000000E+00
  0.00000000E+00  0.00000000E+00  0.00000000E+00
  0.00000000E+00  0.00000000E+00  0.00000000E+00
  0.00000000E+00  0.00000000E+00  0.00000000E+00
  0.00000000E+00  0.00000000E+00  0.00000000E+00
  0.00000000E+00  0.00000000E+00  0.00000000E+00
  0.00000000E+00  0.00000000E+00  0.00000000E+00
  0.00000000E+00  0.00000000E+00  0.00000000E+00
  0.00000000E+00  0.00000000E+00  0.00000000E+00
  0.00000000E+00  0.00000000E+00  0.00000000E+00
  0.00000000E+00  0.00000000E+00  0.00000000E+00
  0.00000000E+00  0.00000000E+00  0.00000000E+00
  0.00000000E+00  0.00000000E+00  0.00000000E+00
  0.00000000E+00  0.00000000E+00  0.00000000E+00
  0.00000000E+00  0.00000000E+00  0.00000000E+00
  0.00000000E+00  0.00000000E+00  0.00000000E+00
  0.00000000E+00  0.00000000E+00  0.00000000E+00
  0.00000000E+00  0.00000000E+00  0.00000000E+00
  0.00000000E+00  0.00000000E+00  0.00000000E+00
  0.00000000E+00  0.00000000E+00  0.00000000E+00
  0.00000000E+00  0.00000000E+00  0.00000000E+00
  0.00000000E+00  0.00000000E+00  0.00000000E+00
  0.00000000E+00  0.00000000E+00  0.00000000E+00
  0.00000000E+00  0.00000000E+00  0.00000000E+00
  0.00000000E+00  0.00000000E+00  0.00000000E+00
  0.00000000E+00  0.00000000E+00  0.00000000E+00
  0.00000000E+00  0.00000000E+00  0.00000000E+00
  0.00000000E+00  0.00000000E+00  0.00000000E+00
  0.00000000E+00  0.00000000E+00  0.00000000E+00
  0.00000000E+00  0.00000000E+00  0.00000000E+00
  0.00000000E+00  0.00000000E+00  0.00000000E+00
  0.00000000E+00  0.00000000E+00  0.00000000E+00
  0.00000000E+00  0.00000000E+00  0.00000000E+00
  0.00000000E+00  0.00000000E+00  0.00000000E+00
  0.00000000E+00  0.00000000E+00  0.00000000E+00
  0.00000000E+00  0.00000000E+00  0.00000000E+00
  0.00000000E+00  0.00000000E+00  0.00000000E+00
