POSCAR                                  
   1.00000000000000     
     9.9295000000000009    0.0000000000000000    0.0000000000000000
     3.3098332300000002    9.3616224199999998    0.0000000000000000
     0.0000000000000000    0.0000000000000000   21.0805499999999988
   Fe   O 
    64     4
Selective dynamics
Direct
  0.0873890000000017  0.1626109999999983  0.0948739999999972   F   F   F
  0.0872375841278270  0.1624706917430601  0.2861273158176800   T   T   T
  0.2123890000000017  0.0376109999999983  0.1910219999999967   F   F   F
  0.2155853760976072  0.0406745383529454  0.3806551319891440   T   T   T
  0.3373890000000017  0.1626109999999983  0.0948739999999972   F   F   F
  0.3373325167220926  0.1624903999406229  0.2839856005324819   T   T   T
  0.4623890000000017  0.0376109999999983  0.1910219999999967   F   F   F
  0.4719132526161331  0.0282007203771144  0.3774835498394253   T   T   T
  0.5873890000000017  0.1626109999999983  0.0948739999999972   F   F   F
  0.5872570843933289  0.1627054436995721  0.2862251767917598   T   T   T
  0.7123890000000017  0.0376109999999983  0.1910219999999967   F   F   F
  0.7155133305791210  0.0410028945710579  0.3807514429574113   T   T   T
  0.8373890000000017  0.1626109999999983  0.0948739999999972   F   F   F
  0.8372412483570670  0.1625236012536604  0.2839306293134882   T   T   T
  0.9623890000000017  0.0376109999999983  0.1910219999999967   F   F   F
  0.9719737491724700  0.0279304291474176  0.3773644039003656   T   T   T
  0.0873890000000017  0.4126109999999983  0.0948739999999972   F   F   F
  0.0872970301941294  0.4125121061437582  0.2842833487434291   T   T   T
  0.2123890000000017  0.2876109999999983  0.1910219999999967   F   F   F
  0.2028403112255575  0.2969013715777962  0.3773516544635811   T   T   T
  0.3373890000000017  0.4126109999999983  0.0948739999999972   F   F   F
  0.3373715189393494  0.4126074905240031  0.2861969244434377   T   T   T
  0.4623890000000017  0.2876109999999983  0.1910219999999967   F   F   F
  0.4590231037823784  0.2846210327600645  0.3807410012800148   T   T   T
  0.5873890000000017  0.4126109999999983  0.0948739999999972   F   F   F
  0.5874523823026152  0.4127113767243173  0.2842797793839651   T   T   T
  0.7123890000000017  0.2876109999999983  0.1910219999999967   F   F   F
  0.7026573030834626  0.2973487024996331  0.3773830433838015   T   T   T
  0.8373890000000017  0.4126109999999983  0.0948739999999972   F   F   F
  0.8373713252765427  0.4126126509620462  0.2861674835976871   T   T   T
  0.9623890000000017  0.2876109999999983  0.1910219999999967   F   F   F
  0.9591157003969073  0.2842385894989903  0.3805799802385081   T   T   T
  0.0873890000000017  0.6626109999999983  0.0948739999999972   F   F   F
  0.0874881290609792  0.6625147499384383  0.2862269717929209   T   T   T
  0.2123890000000017  0.5376109999999983  0.1910219999999967   F   F   F
  0.2156921049324225  0.5405743378822478  0.3807477900363878   T   T   T
  0.3373890000000017  0.6626109999999983  0.0948739999999972   F   F   F
  0.3374162198498709  0.6627278920566368  0.2839860393551419   T   T   T
  0.4623890000000017  0.5376109999999983  0.1910219999999967   F   F   F
  0.4718745970257459  0.5283121187273707  0.3773532979709202   T   T   T
  0.5873890000000017  0.6626109999999983  0.0948739999999972   F   F   F
  0.5875090139704326  0.6627481517166061  0.2861246413386738   T   T   T
  0.7123890000000017  0.5376109999999983  0.1910219999999967   F   F   F
  0.7155847990889228  0.5410060511222881  0.3805842037941218   T   T   T
  0.8373890000000017  0.6626109999999983  0.0948739999999972   F   F   F
  0.8375009189256275  0.6626989678262731  0.2839306340296730   T   T   T
  0.9623890000000017  0.5376109999999983  0.1910219999999967   F   F   F
  0.9720531164998079  0.5278932852219214  0.3773813101972010   T   T   T
  0.0873890000000017  0.9126109999999983  0.0948739999999972   F   F   F
  0.0873539773965604  0.9124520234086120  0.2843317040337965   T   T   T
  0.2123890000000017  0.7876109999999983  0.1910219999999967   F   F   F
  0.2027994274481912  0.7970099236292540  0.3774834562321345   T   T   T
  0.3373890000000017  0.9126109999999983  0.0948739999999972   F   F   F
  0.3373711239915806  0.9126070791967820  0.2861603025700674   T   T   T
  0.4623890000000017  0.7876109999999983  0.1910219999999967   F   F   F
  0.4591210068058018  0.7845215405398562  0.3806494146527157   T   T   T
  0.5873890000000017  0.9126109999999983  0.0948739999999972   F   F   F
  0.5873913634000871  0.9127747062399294  0.2843288316530632   T   T   T
  0.7123890000000017  0.7876109999999983  0.1910219999999967   F   F   F
  0.7027255488611104  0.7973149298505362  0.3773668037556774   T   T   T
  0.8373890000000017  0.9126109999999983  0.0948739999999972   F   F   F
  0.8373683084748151  0.9126132760248069  0.2862525187747025   T   T   T
  0.9623890000000017  0.7876109999999983  0.1910219999999967   F   F   F
  0.9591724131148638  0.7842472595697743  0.3807457059042676   T   T   T
  0.3369373068090127  0.1622639953444676  0.4261954156352132   T   T   T
  0.8369480674216234  0.1621565930258626  0.4260280703001627   T   T   T
  0.8377697725866184  0.6630689527110292  0.4260253336603697   T   T   T
  0.3374705477247417  0.6626188190724989  0.4261997760966523   T   T   T
 
  0.00000000E+00  0.00000000E+00  0.00000000E+00
  0.00000000E+00  0.00000000E+00  0.00000000E+00
  0.00000000E+00  0.00000000E+00  0.00000000E+00
  0.00000000E+00  0.00000000E+00  0.00000000E+00
  0.00000000E+00  0.00000000E+00  0.00000000E+00
  0.00000000E+00  0.00000000E+00  0.00000000E+00
  0.00000000E+00  0.00000000E+00  0.00000000E+00
  0.00000000E+00  0.00000000E+00  0.00000000E+00
  0.00000000E+00  0.00000000E+00  0.00000000E+00
  0.00000000E+00  0.00000000E+00  0.00000000E+00
  0.00000000E+00  0.00000000E+00  0.00000000E+00
  0.00000000E+00  0.00000000E+00  0.00000000E+00
  0.00000000E+00  0.00000000E+00  0.00000000E+00
  0.00000000E+00  0.00000000E+00  0.00000000E+00
  0.00000000E+00  0.00000000E+00  0.00000000E+00
  0.00000000E+00  0.00000000E+00  0.00000000E+00
  0.00000000E+00  0.00000000E+00  0.00000000E+00
  0.00000000E+00  0.00000000E+00  0.00000000E+00
  0.00000000E+00  0.00000000E+00  0.00000000E+00
  0.00000000E+00  0.00000000E+00  0.00000000E+00
  0.00000000E+00  0.00000000E+00  0.00000000E+00
  0.00000000E+00  0.00000000E+00  0.00000000E+00
  0.00000000E+00  0.00000000E+00  0.00000000E+00
  0.00000000E+00  0.00000000E+00  0.00000000E+00
  0.00000000E+00  0.00000000E+00  0.00000000E+00
  0.00000000E+00  0.00000000E+00  0.00000000E+00
  0.00000000E+00  0.00000000E+00  0.00000000E+00
  0.00000000E+00  0.00000000E+00  0.00000000E+00
  0.00000000E+00  0.00000000E+00  0.00000000E+00
  0.00000000E+00  0.00000000E+00  0.00000000E+00
  0.00000000E+00  0.00000000E+00  0.00000000E+00
  0.00000000E+00  0.00000000E+00  0.00000000E+00
  0.00000000E+00  0.00000000E+00  0.00000000E+00
  0.00000000E+00  0.00000000E+00  0.00000000E+00
  0.00000000E+00  0.00000000E+00  0.00000000E+00
  0.00000000E+00  0.00000000E+00  0.00000000E+00
  0.00000000E+00  0.00000000E+00  0.00000000E+00
  0.00000000E+00  0.00000000E+00  0.00000000E+00
  0.00000000E+00  0.00000000E+00  0.00000000E+00
  0.00000000E+00  0.00000000E+00  0.00000000E+00
  0.00000000E+00  0.00000000E+00  0.00000000E+00
  0.00000000E+00  0.00000000E+00  0.00000000E+00
  0.00000000E+00  0.00000000E+00  0.00000000E+00
  0.00000000E+00  0.00000000E+00  0.00000000E+00
  0.00000000E+00  0.00000000E+00  0.00000000E+00
  0.00000000E+00  0.00000000E+00  0.00000000E+00
  0.00000000E+00  0.00000000E+00  0.00000000E+00
  0.00000000E+00  0.00000000E+00  0.00000000E+00
  0.00000000E+00  0.00000000E+00  0.00000000E+00
  0.00000000E+00  0.00000000E+00  0.00000000E+00
  0.00000000E+00  0.00000000E+00  0.00000000E+00
  0.00000000E+00  0.00000000E+00  0.00000000E+00
  0.00000000E+00  0.00000000E+00  0.00000000E+00
  0.00000000E+00  0.00000000E+00  0.00000000E+00
  0.00000000E+00  0.00000000E+00  0.00000000E+00
  0.00000000E+00  0.00000000E+00  0.00000000E+00
  0.00000000E+00  0.00000000E+00  0.00000000E+00
  0.00000000E+00  0.00000000E+00  0.00000000E+00
  0.00000000E+00  0.00000000E+00  0.00000000E+00
  0.00000000E+00  0.00000000E+00  0.00000000E+00
  0.00000000E+00  0.00000000E+00  0.00000000E+00
  0.00000000E+00  0.00000000E+00  0.00000000E+00
  0.00000000E+00  0.00000000E+00  0.00000000E+00
  0.00000000E+00  0.00000000E+00  0.00000000E+00
  0.00000000E+00  0.00000000E+00  0.00000000E+00
  0.00000000E+00  0.00000000E+00  0.00000000E+00
  0.00000000E+00  0.00000000E+00  0.00000000E+00
  0.00000000E+00  0.00000000E+00  0.00000000E+00
