POSCAR                                  
   1.00000000000000     
    10.0267700000000008    0.0000000000000000    0.0000000000000000
    -5.0133850000000004    8.6834375399999999    0.0000000000000000
     0.0000000000000000    0.0000000000000000   21.1889830699999990
   Ni   Fe
    50    14
Selective dynamics
Direct
  0.0005290000000002  0.0005299999999977  0.0959331899999967   F   F   F
  0.0033207442765361  0.0028076501405493  0.3779087079794117   T   T   T
  0.2500130000000027  0.0002870000000001  0.0950751600000004   F   F   F
  0.2520398834340338  0.0024900545296347  0.3786255214215737   T   T   T
  0.4994870000000020  0.9990799999999993  0.0958007699999968   F   F   F
  0.4994492223191604  0.0010934677163955  0.3774010841820913   T   T   T
  0.7493020000000001  0.9991929999999982  0.0958824800000002   F   F   F
  0.7493649392343348  0.9997500879305596  0.3783586091630079   T   T   T
  0.9986400000000017  0.2485069999999965  0.0957790300000028   F   F   F
  0.0032882684441319  0.2557519521422014  0.3794423685848029   T   T   T
  0.2501260000000016  0.2502160000000018  0.0954205800000025   F   F   F
  0.2539194763580143  0.2543043903869883  0.3778511834097672   T   T   T
  0.0828819999999979  0.1663319999999970  0.1923626299999981   F   F   F
  0.5006419999999991  0.2489130000000017  0.0958679900000021   F   F   F
  0.5015222258796540  0.2537601228205934  0.3800222616780644   T   T   T
  0.3329390000000032  0.1668579999999977  0.1924284099999980   F   F   F
  0.7505250000000032  0.2500619999999998  0.0966947300000029   F   F   F
  0.7509913801172020  0.2506663337409837  0.3772542923575509   T   T   T
  0.5823070000000001  0.1672009999999986  0.1933893100000006   F   F   F
  0.8340320000000006  0.1667240000000021  0.1931369200000006   F   F   F
  0.6655039846554897  0.0848209616009191  0.2844112238605315   T   T   T
  0.9176065688164338  0.0865393560079268  0.2865320589859284   T   T   T
  0.0018340000000023  0.5004750000000016  0.0943886700000007   F   F   F
  0.0006425954264511  0.4992827796918649  0.3792625305258708   T   T   T
  0.0809220000000010  0.4160970000000006  0.1926338600000008   F   F   F
  0.1661600088506861  0.3301630055926451  0.2844884892926619   T   T   T
  0.7517020000000016  0.5018689999999992  0.0946057199999970   F   F   F
  0.7468614575906986  0.4989271664386599  0.3786512949385585   T   T   T
  0.5835730000000012  0.4161720000000031  0.1926196599999983   F   F   F
  0.0010910000000024  0.7511530000000022  0.0946830899999966   F   F   F
  0.9999671571383283  0.7502920710763872  0.3788833049186391   T   T   T
  0.2490260000000006  0.7488570000000010  0.0944918300000026   F   F   F
  0.2497931742020822  0.7459418298675855  0.3792646348531077   T   T   T
  0.0837580000000031  0.6681039999999996  0.1914834399999990   F   F   F
  0.4997249999999980  0.7491729999999990  0.0946410700000015   F   F   F
  0.4965595197376649  0.7435830608148091  0.3789404614177388   T   T   T
  0.3329740000000001  0.6672769999999986  0.1910739799999988   F   F   F
  0.7512830000000008  0.7509360000000029  0.0954333299999988   F   F   F
  0.7456444851044579  0.7451956782032930  0.3781260925500073   T   T   T
  0.5829809999999966  0.6666820000000016  0.1911956900000007   F   F   F
  0.4150717641970703  0.5805428731790011  0.2836507346007149   T   T   T
  0.8339590000000001  0.6677060000000026  0.1916651299999970   F   F   F
  0.9154747365169460  0.5821808241262851  0.2846845954422609   T   T   T
  0.0829170000000019  0.9168579999999977  0.1918723200000017   F   F   F
  0.3342060000000018  0.9170540000000003  0.1920679199999995   F   F   F
  0.1680903578866848  0.8341419234176137  0.2856614176423181   T   T   T
  0.4156471572102640  0.8329129906732975  0.2846510147765826   T   T   T
  0.8323310000000035  0.9171499999999995  0.1930227400000035   F   F   F
  0.6651858483480326  0.8325750745042892  0.2848732176993505   T   T   T
  0.9168081562281154  0.8335570706389641  0.2855666159940869   T   T   T
  0.1739057526963024  0.0846442990145217  0.2854178760986929   T   T   T
  0.4167496897674403  0.0931623716160984  0.2864797055891142   T   T   T
  0.2482990000000029  0.4990459999999999  0.0951348500000009   F   F   F
  0.2510630250687037  0.5026483659150850  0.3730450943889772   T   T   T
  0.5064810000000008  0.5025949999999995  0.0958793000000000   F   F   F
  0.4988815504755382  0.4987313258781660  0.3724797878048706   T   T   T
  0.3313410000000019  0.4171430000000029  0.1924623100000034   F   F   F
  0.4190644880500341  0.3321234916089162  0.2847636345848486   T   T   T
  0.8335480000000004  0.4183900000000023  0.1911739499999996   F   F   F
  0.6649182192249037  0.3359007044030942  0.2836794050497246   T   T   T
  0.9171249680476783  0.3409859535443630  0.2840116881258256   T   T   T
  0.1622574349645535  0.5752237645539906  0.2873858796368154   T   T   T
  0.6615810853142751  0.5747751773813251  0.2864326369187887   T   T   T
  0.5831039999999987  0.9165149999999969  0.1925211399999966   F   F   F
 
  0.00000000E+00  0.00000000E+00  0.00000000E+00
  0.00000000E+00  0.00000000E+00  0.00000000E+00
  0.00000000E+00  0.00000000E+00  0.00000000E+00
  0.00000000E+00  0.00000000E+00  0.00000000E+00
  0.00000000E+00  0.00000000E+00  0.00000000E+00
  0.00000000E+00  0.00000000E+00  0.00000000E+00
  0.00000000E+00  0.00000000E+00  0.00000000E+00
  0.00000000E+00  0.00000000E+00  0.00000000E+00
  0.00000000E+00  0.00000000E+00  0.00000000E+00
  0.00000000E+00  0.00000000E+00  0.00000000E+00
  0.00000000E+00  0.00000000E+00  0.00000000E+00
  0.00000000E+00  0.00000000E+00  0.00000000E+00
  0.00000000E+00  0.00000000E+00  0.00000000E+00
  0.00000000E+00  0.00000000E+00  0.00000000E+00
  0.00000000E+00  0.00000000E+00  0.00000000E+00
  0.00000000E+00  0.00000000E+00  0.00000000E+00
  0.00000000E+00  0.00000000E+00  0.00000000E+00
  0.00000000E+00  0.00000000E+00  0.00000000E+00
  0.00000000E+00  0.00000000E+00  0.00000000E+00
  0.00000000E+00  0.00000000E+00  0.00000000E+00
  0.00000000E+00  0.00000000E+00  0.00000000E+00
  0.00000000E+00  0.00000000E+00  0.00000000E+00
  0.00000000E+00  0.00000000E+00  0.00000000E+00
  0.00000000E+00  0.00000000E+00  0.00000000E+00
  0.00000000E+00  0.00000000E+00  0.00000000E+00
  0.00000000E+00  0.00000000E+00  0.00000000E+00
  0.00000000E+00  0.00000000E+00  0.00000000E+00
  0.00000000E+00  0.00000000E+00  0.00000000E+00
  0.00000000E+00  0.00000000E+00  0.00000000E+00
  0.00000000E+00  0.00000000E+00  0.00000000E+00
  0.00000000E+00  0.00000000E+00  0.00000000E+00
  0.00000000E+00  0.00000000E+00  0.00000000E+00
  0.00000000E+00  0.00000000E+00  0.00000000E+00
  0.00000000E+00  0.00000000E+00  0.00000000E+00
  0.00000000E+00  0.00000000E+00  0.00000000E+00
  0.00000000E+00  0.00000000E+00  0.00000000E+00
  0.00000000E+00  0.00000000E+00  0.00000000E+00
  0.00000000E+00  0.00000000E+00  0.00000000E+00
  0.00000000E+00  0.00000000E+00  0.00000000E+00
  0.00000000E+00  0.00000000E+00  0.00000000E+00
  0.00000000E+00  0.00000000E+00  0.00000000E+00
  0.00000000E+00  0.00000000E+00  0.00000000E+00
  0.00000000E+00  0.00000000E+00  0.00000000E+00
  0.00000000E+00  0.00000000E+00  0.00000000E+00
  0.00000000E+00  0.00000000E+00  0.00000000E+00
  0.00000000E+00  0.00000000E+00  0.00000000E+00
  0.00000000E+00  0.00000000E+00  0.00000000E+00
  0.00000000E+00  0.00000000E+00  0.00000000E+00
  0.00000000E+00  0.00000000E+00  0.00000000E+00
  0.00000000E+00  0.00000000E+00  0.00000000E+00
  0.00000000E+00  0.00000000E+00  0.00000000E+00
  0.00000000E+00  0.00000000E+00  0.00000000E+00
  0.00000000E+00  0.00000000E+00  0.00000000E+00
  0.00000000E+00  0.00000000E+00  0.00000000E+00
  0.00000000E+00  0.00000000E+00  0.00000000E+00
  0.00000000E+00  0.00000000E+00  0.00000000E+00
  0.00000000E+00  0.00000000E+00  0.00000000E+00
  0.00000000E+00  0.00000000E+00  0.00000000E+00
  0.00000000E+00  0.00000000E+00  0.00000000E+00
  0.00000000E+00  0.00000000E+00  0.00000000E+00
  0.00000000E+00  0.00000000E+00  0.00000000E+00
  0.00000000E+00  0.00000000E+00  0.00000000E+00
  0.00000000E+00  0.00000000E+00  0.00000000E+00
  0.00000000E+00  0.00000000E+00  0.00000000E+00
