K-POINTS
 0
Gamma-Centered
 1 1 1
 0 0 0
