POSCAR                                  
   1.00000000000000     
     9.9673800000000004    0.0000000000000000    0.0000000000000000
    -4.9836900000000002    8.6320042899999994    0.0000000000000000
     0.0000000000000000    0.0000000000000000   21.1037500000000016
   Ni   O 
    64     4
Selective dynamics
Direct
  0.1128330000000020  0.2256670000000014  0.0947699999999969   F   F   F
  0.1109248242437127  0.2275735528599728  0.3825013551872207   F   F   F
  0.1961670000000026  0.1423330000000007  0.1911780000000007   F   F   F
  0.0298059311346069  0.0591450882915623  0.2847139124859180   F   F   F
  0.3628330000000020  0.2256670000000014  0.0947699999999969   F   F   F
  0.3666165463958513  0.2274547288152843  0.3825265396078930   F   F   F
  0.4461670000000026  0.1423330000000007  0.1911780000000007   F   F   F
  0.2792915517981974  0.0591038393002486  0.2847173120783302   F   F   F
  0.6128330000000020  0.2256670000000014  0.0947699999999969   F   F   F
  0.6108536095187094  0.2274523660030171  0.3825354225551695   F   F   F
  0.6961670000000026  0.1423330000000007  0.1911780000000007   F   F   F
  0.5298264052111162  0.0591019377563529  0.2847329357838565   F   F   F
  0.8628330000000020  0.2256670000000014  0.0947699999999969   F   F   F
  0.8667176513343157  0.2275591951676114  0.3825106561697110   F   F   F
  0.9461670000000026  0.1423330000000007  0.1911780000000007   F   F   F
  0.7793238677091479  0.0591393872311656  0.2847272016889065   F   F   F
  0.1128330000000020  0.4756670000000014  0.0947699999999969   F   F   F
  0.1109439625534754  0.4718304935175115  0.3825156672577072   F   F   F
  0.1961670000000026  0.3923330000000007  0.1911780000000007   F   F   F
  0.0295314104646031  0.3090118673582905  0.2864566235536458   F   F   F
  0.3628330000000020  0.4756670000000014  0.0947699999999969   F   F   F
  0.3627720009232538  0.4755474987481458  0.3771421294350784   F   F   F
  0.4461670000000026  0.3923330000000007  0.1911780000000007   F   F   F
  0.2793318381945353  0.3086153806862375  0.2847101642316411   F   F   F
  0.6128330000000020  0.4756670000000014  0.0947699999999969   F   F   F
  0.6108426206441483  0.4717080564289940  0.3825624321466110   F   F   F
  0.6961670000000026  0.3923330000000007  0.1911780000000007   F   F   F
  0.5294589455829455  0.3089124205882280  0.2864710674349273   F   F   F
  0.8628330000000020  0.4756670000000014  0.0947699999999969   F   F   F
  0.8627967220658271  0.4755682768586851  0.3771438825343139   F   F   F
  0.9461670000000026  0.3923330000000007  0.1911780000000007   F   F   F
  0.7793066030834106  0.3086065682003559  0.2847203030068162   F   F   F
  0.1128330000000020  0.7256670000000014  0.0947699999999969   F   F   F
  0.1108751748465661  0.7275588026919065  0.3825016570035145   F   F   F
  0.1961670000000026  0.6423330000000007  0.1911780000000007   F   F   F
  0.0298065033334868  0.5591389600620055  0.2847171696557489   F   F   F
  0.3628330000000020  0.7256670000000014  0.0947699999999969   F   F   F
  0.3666580379135018  0.7275439680267839  0.3825309665304319   F   F   F
  0.4461670000000026  0.6423330000000007  0.1911780000000007   F   F   F
  0.2793436326520715  0.5591550017282962  0.2847214952619674   F   F   F
  0.6128330000000020  0.7256670000000014  0.0947699999999969   F   F   F
  0.6108379970776455  0.7274593631651946  0.3825462820165058   F   F   F
  0.6961670000000026  0.6423330000000007  0.1911780000000007   F   F   F
  0.5298228575707403  0.5591039089298498  0.2847332783592663   F   F   F
  0.8628330000000020  0.7256670000000014  0.0947699999999969   F   F   F
  0.8666083120620089  0.7274921793772294  0.3825131201149035   F   F   F
  0.9461670000000026  0.6423330000000007  0.1911780000000007   F   F   F
  0.7792771977669923  0.5590927436793917  0.2847293896014648   F   F   F
  0.1128330000000020  0.9756670000000014  0.0947699999999969   F   F   F
  0.1108633455041405  0.9717885362829042  0.3825163635410933   F   F   F
  0.1961670000000026  0.8923330000000007  0.1911780000000007   F   F   F
  0.0294635833412809  0.8089756932444686  0.2864629522645097   F   F   F
  0.3628330000000020  0.9756670000000014  0.0947699999999969   F   F   F
  0.3627596779200605  0.9755482500153553  0.3771382694056216   F   F   F
  0.4461670000000026  0.8923330000000007  0.1911780000000007   F   F   F
  0.2793050569548872  0.8086133320675907  0.2847100765119572   F   F   F
  0.6128330000000020  0.9756670000000014  0.0947699999999969   F   F   F
  0.6109178547536712  0.9717675303452054  0.3825572709440487   F   F   F
  0.6961670000000026  0.8923330000000007  0.1911780000000007   F   F   F
  0.5294871266662099  0.8089619482679897  0.2864740883716517   F   F   F
  0.8628330000000020  0.9756670000000014  0.0947699999999969   F   F   F
  0.8628060326664889  0.9755744150528020  0.3771410320574491   F   F   F
  0.9461670000000026  0.8923330000000007  0.1911780000000007   F   F   F
  0.7792807670240083  0.8086020879625150  0.2847222226368163   F   F   F
  0.1961140939833113  0.1423124272547034  0.4347534724040230   T   T   T
  0.6961409435990524  0.6422473002190550  0.4347061475244196   T   T   T
  0.1961289798249373  0.6423286580045301  0.4347371448569371   T   T   T
  0.6962632392231561  0.1423452350044482  0.4347100888629819   T   T   T
 
  0.00000000E+00  0.00000000E+00  0.00000000E+00
  0.00000000E+00  0.00000000E+00  0.00000000E+00
  0.00000000E+00  0.00000000E+00  0.00000000E+00
  0.00000000E+00  0.00000000E+00  0.00000000E+00
  0.00000000E+00  0.00000000E+00  0.00000000E+00
  0.00000000E+00  0.00000000E+00  0.00000000E+00
  0.00000000E+00  0.00000000E+00  0.00000000E+00
  0.00000000E+00  0.00000000E+00  0.00000000E+00
  0.00000000E+00  0.00000000E+00  0.00000000E+00
  0.00000000E+00  0.00000000E+00  0.00000000E+00
  0.00000000E+00  0.00000000E+00  0.00000000E+00
  0.00000000E+00  0.00000000E+00  0.00000000E+00
  0.00000000E+00  0.00000000E+00  0.00000000E+00
  0.00000000E+00  0.00000000E+00  0.00000000E+00
  0.00000000E+00  0.00000000E+00  0.00000000E+00
  0.00000000E+00  0.00000000E+00  0.00000000E+00
  0.00000000E+00  0.00000000E+00  0.00000000E+00
  0.00000000E+00  0.00000000E+00  0.00000000E+00
  0.00000000E+00  0.00000000E+00  0.00000000E+00
  0.00000000E+00  0.00000000E+00  0.00000000E+00
  0.00000000E+00  0.00000000E+00  0.00000000E+00
  0.00000000E+00  0.00000000E+00  0.00000000E+00
  0.00000000E+00  0.00000000E+00  0.00000000E+00
  0.00000000E+00  0.00000000E+00  0.00000000E+00
  0.00000000E+00  0.00000000E+00  0.00000000E+00
  0.00000000E+00  0.00000000E+00  0.00000000E+00
  0.00000000E+00  0.00000000E+00  0.00000000E+00
  0.00000000E+00  0.00000000E+00  0.00000000E+00
  0.00000000E+00  0.00000000E+00  0.00000000E+00
  0.00000000E+00  0.00000000E+00  0.00000000E+00
  0.00000000E+00  0.00000000E+00  0.00000000E+00
  0.00000000E+00  0.00000000E+00  0.00000000E+00
  0.00000000E+00  0.00000000E+00  0.00000000E+00
  0.00000000E+00  0.00000000E+00  0.00000000E+00
  0.00000000E+00  0.00000000E+00  0.00000000E+00
  0.00000000E+00  0.00000000E+00  0.00000000E+00
  0.00000000E+00  0.00000000E+00  0.00000000E+00
  0.00000000E+00  0.00000000E+00  0.00000000E+00
  0.00000000E+00  0.00000000E+00  0.00000000E+00
  0.00000000E+00  0.00000000E+00  0.00000000E+00
  0.00000000E+00  0.00000000E+00  0.00000000E+00
  0.00000000E+00  0.00000000E+00  0.00000000E+00
  0.00000000E+00  0.00000000E+00  0.00000000E+00
  0.00000000E+00  0.00000000E+00  0.00000000E+00
  0.00000000E+00  0.00000000E+00  0.00000000E+00
  0.00000000E+00  0.00000000E+00  0.00000000E+00
  0.00000000E+00  0.00000000E+00  0.00000000E+00
  0.00000000E+00  0.00000000E+00  0.00000000E+00
  0.00000000E+00  0.00000000E+00  0.00000000E+00
  0.00000000E+00  0.00000000E+00  0.00000000E+00
  0.00000000E+00  0.00000000E+00  0.00000000E+00
  0.00000000E+00  0.00000000E+00  0.00000000E+00
  0.00000000E+00  0.00000000E+00  0.00000000E+00
  0.00000000E+00  0.00000000E+00  0.00000000E+00
  0.00000000E+00  0.00000000E+00  0.00000000E+00
  0.00000000E+00  0.00000000E+00  0.00000000E+00
  0.00000000E+00  0.00000000E+00  0.00000000E+00
  0.00000000E+00  0.00000000E+00  0.00000000E+00
  0.00000000E+00  0.00000000E+00  0.00000000E+00
  0.00000000E+00  0.00000000E+00  0.00000000E+00
  0.00000000E+00  0.00000000E+00  0.00000000E+00
  0.00000000E+00  0.00000000E+00  0.00000000E+00
  0.00000000E+00  0.00000000E+00  0.00000000E+00
  0.00000000E+00  0.00000000E+00  0.00000000E+00
  0.00000000E+00  0.00000000E+00  0.00000000E+00
  0.00000000E+00  0.00000000E+00  0.00000000E+00
  0.00000000E+00  0.00000000E+00  0.00000000E+00
  0.00000000E+00  0.00000000E+00  0.00000000E+00
