POSCAR                                  
   1.00000000000000     
    10.1116299999999999    0.0000000000000000    0.0000000000000000
    -5.0558149999999999    8.7569284500000002    0.0000000000000000
     0.0000000000000000    0.0000000000000000   21.2664299999999997
   Fe   Ni   O 
    48    16     5
Selective dynamics
Direct
  0.0019470000000013  0.9992000000000019  0.0968289999999996   F   F   F
  0.0032568515455083  0.0019627783538425  0.3811123660807212   F   F   F
  0.4988060000000019  0.9964760000000012  0.0961449999999999   F   F   F
  0.4954466932057144  0.9865969187849970  0.3786787171497821   F   F   F
  0.7431600000000032  0.9964590000000015  0.0944310000000002   F   F   F
  0.7521535350772197  0.9963636088490588  0.3820961516407024   F   F   F
  0.2491360000000000  0.2532259999999980  0.0968099999999978   F   F   F
  0.2495212577284605  0.2487889864784449  0.3820853198010212   F   F   F
  0.0887320000000003  0.1614939999999976  0.1905920000000023   F   F   F
  0.3296259999999975  0.1660979999999981  0.1950629999999975   F   F   F
  0.1701162011463566  0.0834732220373979  0.2899567629662201   F   F   F
  0.5833299999999966  0.1655030000000011  0.1944370000000006   F   F   F
  0.4213076452680653  0.0878149023269188  0.2877420398943613   F   F   F
  0.8265150000000006  0.1665100000000024  0.1932630000000017   F   F   F
  0.6628956813371900  0.0846285740787494  0.2878324395006260   F   F   F
  0.0032080000000008  0.5109089999999981  0.0945129999999992   F   F   F
  0.0022476181325359  0.5031637968584519  0.3760868297396485   F   F   F
  0.2558689999999970  0.5057770000000019  0.0973460000000017   F   F   F
  0.2472159581816484  0.4905668985782157  0.3842980444080624   F   F   F
  0.4996020000000030  0.5030489999999972  0.0975409999999997   F   F   F
  0.4995721282595227  0.4976992037460164  0.3771129237882178   F   F   F
  0.3385990000000021  0.4158370000000033  0.1893930000000026   F   F   F
  0.7567909999999998  0.5080430000000007  0.0963089999999980   F   F   F
  0.7486470836110257  0.4959626379216360  0.3958597120996643   F   F   F
  0.5863360000000029  0.4222940000000008  0.1942359999999965   F   F   F
  0.4190427077153487  0.3292211611382712  0.2865137671066833   F   F   F
  0.8267710000000008  0.4167619999999985  0.1919949999999986   F   F   F
  0.6728633139706588  0.3426621614907077  0.2923411105351050   F   F   F
  0.9918059999999969  0.7470280000000002  0.0957130000000035   F   F   F
  0.0074797461628862  0.7569844078005161  0.3882682976649789   F   F   F
  0.2510460000000023  0.7456389999999971  0.0970360000000028   F   F   F
  0.2508940064804719  0.7488880217955369  0.3884924081963277   F   F   F
  0.0860460000000032  0.6708690000000033  0.1922020000000018   F   F   F
  0.5015369999999990  0.7490570000000005  0.0975290000000015   F   F   F
  0.5011810608482534  0.7462547957641661  0.3840024115632872   F   F   F
  0.3300589999999985  0.6613559999999978  0.1901859999999971   F   F   F
  0.1688773733997948  0.5801728598202018  0.2864215100814604   F   F   F
  0.7477749999999972  0.7486310000000032  0.0940450000000013   F   F   F
  0.7471554874709696  0.7524774159801950  0.3857931044085916   F   F   F
  0.5800819999999973  0.6609630000000024  0.1915270000000007   F   F   F
  0.8321370000000030  0.6619949999999974  0.1930350000000018   F   F   F
  0.6651439062306110  0.5844065386017689  0.2889281461154312   F   F   F
  0.9158250914113495  0.5866841294993961  0.2891245599422021   F   F   F
  0.0860360000000000  0.9163550000000029  0.1937119999999979   F   F   F
  0.3274299999999997  0.9193220000000011  0.1929370000000006   F   F   F
  0.1693826117822965  0.8339213982354892  0.2937523504711876   F   F   F
  0.6613205364858672  0.8308538702900492  0.2872340347644453   F   F   F
  0.9140162834167640  0.8365885517966731  0.2883199987428284   F   F   F
  0.2491649999999979  0.9981310000000008  0.0955980000000025   F   F   F
  0.2524051258535707  0.9965383390918774  0.3878590832121631   F   F   F
  0.0012970000000010  0.2497419999999977  0.0965860000000021   F   F   F
  0.0077474566975653  0.2523804914467576  0.3810031612767588   F   F   F
  0.4993309999999980  0.2516269999999992  0.0953730000000022   F   F   F
  0.4978848472799271  0.2446604995740742  0.3893255044181601   F   F   F
  0.7494420000000019  0.2507129999999975  0.0957310000000007   F   F   F
  0.7502415231579391  0.2408399650166473  0.3887043280945122   F   F   F
  0.9154036862007970  0.0830081003996526  0.2857143583572253   F   F   F
  0.0826080000000005  0.4170799999999986  0.1922530000000009   F   F   F
  0.1677978022508881  0.3310482277815154  0.2860600941177438   F   F   F
  0.9134166603178144  0.3302149542653581  0.2865769708470154   F   F   F
  0.4151702155843182  0.5811216395831735  0.2859411394286866   F   F   F
  0.5819070000000011  0.9152690000000021  0.1924130000000019   F   F   F
  0.4140115213726219  0.8293261607972084  0.2862356717756995   F   F   F
  0.8339989999999986  0.9145710000000022  0.1924040000000034   F   F   F
  0.8370896848814908  0.6778560586616962  0.4400441775749329   F   F   F
  0.3149544928159500  0.1674945436901254  0.4393257703683915   F   F   F
  0.3321963422135426  0.6551658094668937  0.4382810780582957   F   F   F
  0.8449312694265814  0.1494164486717580  0.4371107116449409   F   F   F
  0.6686576648292615  0.3279704318677545  0.4430371398580135   T   T   T
 
  0.00000000E+00  0.00000000E+00  0.00000000E+00
  0.00000000E+00  0.00000000E+00  0.00000000E+00
  0.00000000E+00  0.00000000E+00  0.00000000E+00
  0.00000000E+00  0.00000000E+00  0.00000000E+00
  0.00000000E+00  0.00000000E+00  0.00000000E+00
  0.00000000E+00  0.00000000E+00  0.00000000E+00
  0.00000000E+00  0.00000000E+00  0.00000000E+00
  0.00000000E+00  0.00000000E+00  0.00000000E+00
  0.00000000E+00  0.00000000E+00  0.00000000E+00
  0.00000000E+00  0.00000000E+00  0.00000000E+00
  0.00000000E+00  0.00000000E+00  0.00000000E+00
  0.00000000E+00  0.00000000E+00  0.00000000E+00
  0.00000000E+00  0.00000000E+00  0.00000000E+00
  0.00000000E+00  0.00000000E+00  0.00000000E+00
  0.00000000E+00  0.00000000E+00  0.00000000E+00
  0.00000000E+00  0.00000000E+00  0.00000000E+00
  0.00000000E+00  0.00000000E+00  0.00000000E+00
  0.00000000E+00  0.00000000E+00  0.00000000E+00
  0.00000000E+00  0.00000000E+00  0.00000000E+00
  0.00000000E+00  0.00000000E+00  0.00000000E+00
  0.00000000E+00  0.00000000E+00  0.00000000E+00
  0.00000000E+00  0.00000000E+00  0.00000000E+00
  0.00000000E+00  0.00000000E+00  0.00000000E+00
  0.00000000E+00  0.00000000E+00  0.00000000E+00
  0.00000000E+00  0.00000000E+00  0.00000000E+00
  0.00000000E+00  0.00000000E+00  0.00000000E+00
  0.00000000E+00  0.00000000E+00  0.00000000E+00
  0.00000000E+00  0.00000000E+00  0.00000000E+00
  0.00000000E+00  0.00000000E+00  0.00000000E+00
  0.00000000E+00  0.00000000E+00  0.00000000E+00
  0.00000000E+00  0.00000000E+00  0.00000000E+00
  0.00000000E+00  0.00000000E+00  0.00000000E+00
  0.00000000E+00  0.00000000E+00  0.00000000E+00
  0.00000000E+00  0.00000000E+00  0.00000000E+00
  0.00000000E+00  0.00000000E+00  0.00000000E+00
  0.00000000E+00  0.00000000E+00  0.00000000E+00
  0.00000000E+00  0.00000000E+00  0.00000000E+00
  0.00000000E+00  0.00000000E+00  0.00000000E+00
  0.00000000E+00  0.00000000E+00  0.00000000E+00
  0.00000000E+00  0.00000000E+00  0.00000000E+00
  0.00000000E+00  0.00000000E+00  0.00000000E+00
  0.00000000E+00  0.00000000E+00  0.00000000E+00
  0.00000000E+00  0.00000000E+00  0.00000000E+00
  0.00000000E+00  0.00000000E+00  0.00000000E+00
  0.00000000E+00  0.00000000E+00  0.00000000E+00
  0.00000000E+00  0.00000000E+00  0.00000000E+00
  0.00000000E+00  0.00000000E+00  0.00000000E+00
  0.00000000E+00  0.00000000E+00  0.00000000E+00
  0.00000000E+00  0.00000000E+00  0.00000000E+00
  0.00000000E+00  0.00000000E+00  0.00000000E+00
  0.00000000E+00  0.00000000E+00  0.00000000E+00
  0.00000000E+00  0.00000000E+00  0.00000000E+00
  0.00000000E+00  0.00000000E+00  0.00000000E+00
  0.00000000E+00  0.00000000E+00  0.00000000E+00
  0.00000000E+00  0.00000000E+00  0.00000000E+00
  0.00000000E+00  0.00000000E+00  0.00000000E+00
  0.00000000E+00  0.00000000E+00  0.00000000E+00
  0.00000000E+00  0.00000000E+00  0.00000000E+00
  0.00000000E+00  0.00000000E+00  0.00000000E+00
  0.00000000E+00  0.00000000E+00  0.00000000E+00
  0.00000000E+00  0.00000000E+00  0.00000000E+00
  0.00000000E+00  0.00000000E+00  0.00000000E+00
  0.00000000E+00  0.00000000E+00  0.00000000E+00
  0.00000000E+00  0.00000000E+00  0.00000000E+00
  0.00000000E+00  0.00000000E+00  0.00000000E+00
  0.00000000E+00  0.00000000E+00  0.00000000E+00
  0.00000000E+00  0.00000000E+00  0.00000000E+00
  0.00000000E+00  0.00000000E+00  0.00000000E+00
  0.00000000E+00  0.00000000E+00  0.00000000E+00
