POSCAR                                  
   1.00000000000000     
    10.1003100000000003    0.0000000000000000    0.0000000000000000
    -5.0501550000000002    8.7471250499999993    0.0000000000000000
     0.0000000000000000    0.0000000000000000   21.2537999999999982
   Ni   Fe   O    H 
    33    31     5     1
Selective dynamics
Direct
  0.9990430000000003  0.0006419999999991  0.1905229999999989   F   F   F
  0.2484910000000013  0.9986279999999965  0.1920550000000034   F   F   F
  0.4990250000000032  0.0019270000000020  0.1918059999999997   F   F   F
  0.9981390000000019  0.2506739999999965  0.1919419999999974   F   F   F
  0.2492149999999995  0.2488620000000026  0.1911860000000019   F   F   F
  0.3321384152082842  0.1646207692341264  0.2872627928707203   F   F   F
  0.7489350000000030  0.2527809999999988  0.1931749999999965   F   F   F
  0.4183749999999975  0.0839399999999983  0.0941180000000017   F   F   F
  0.4163674082015092  0.0856377934408883  0.3821550388934583   F   F   F
  0.8313402420192944  0.1663060963572249  0.2895076614020695   F   F   F
  0.6679699999999968  0.0847229999999968  0.0956929999999971   F   F   F
  0.6670741916347751  0.0867546280096221  0.3835980496987830   F   F   F
  0.9990859999999984  0.4991079999999997  0.1930400000000034   F   F   F
  0.7481689999999972  0.4987110000000001  0.1920459999999977   F   F   F
  0.5835217533929367  0.4186954745284268  0.2863667423775098   F   F   F
  0.4196099999999987  0.3333709999999996  0.0941400000000030   F   F   F
  0.4143493611424489  0.3296773033031002  0.3811620075860986   F   F   F
  0.8300861901342458  0.4162181234620306  0.2874307230972093   F   F   F
  0.9185590000000019  0.3350160000000031  0.0956869999999981   F   F   F
  0.9137267085057914  0.3319822581055050  0.3845228399128189   F   F   F
  0.9976580000000013  0.7489690000000024  0.1925600000000003   F   F   F
  0.0827585648263351  0.6657517414358978  0.2869509616141741   F   F   F
  0.7534649999999985  0.7517280000000000  0.1916289999999989   F   F   F
  0.4173729999999978  0.5835239999999970  0.0962340000000026   F   F   F
  0.4116553554876390  0.5810458668479939  0.3829347432363761   F   F   F
  0.9155080000000027  0.5846190000000036  0.0954290000000029   F   F   F
  0.9095810154721136  0.5859054214780528  0.3841017210435353   F   F   F
  0.1668289999999999  0.8349079999999987  0.0945669999999978   F   F   F
  0.1647646714647593  0.8363282794809308  0.3771751628814926   F   F   F
  0.4171529999999990  0.8333879999999994  0.0967929999999981   F   F   F
  0.4133052990738477  0.8321179493180964  0.3850366436225556   F   F   F
  0.9198510000000013  0.8326369999999983  0.0953980000000030   F   F   F
  0.9160488326409251  0.8341958496940407  0.3805971574331579   F   F   F
  0.7491819999999976  0.0045379999999966  0.1931129999999968   F   F   F
  0.0765211106878638  0.1607237887874788  0.2844425487787987   F   F   F
  0.4931899999999985  0.2454400000000021  0.1916780000000031   F   F   F
  0.1713960000000014  0.0833930000000009  0.0953590000000020   F   F   F
  0.1754718850066155  0.0857701738297010  0.3839809719510399   F   F   F
  0.5862918664566763  0.1666592055880614  0.2855201221109098   F   F   F
  0.9169309999999982  0.0858149999999966  0.0941010000000020   F   F   F
  0.9137774455954144  0.0876631265311119  0.3834389612761484   F   F   F
  0.2459640000000007  0.4966930000000005  0.1936990000000023   F   F   F
  0.0766236841727093  0.4177056847002660  0.2872763271267047   F   F   F
  0.5029729999999972  0.4996209999999977  0.1909629999999964   F   F   F
  0.3360991109323379  0.4167094056071505  0.2853946908267702   F   F   F
  0.1708140000000000  0.3372420000000034  0.0955050000000028   F   F   F
  0.1642610672113136  0.3314844173536002  0.3767037074703623   F   F   F
  0.6726469999999978  0.3359809999999968  0.0960030000000032   F   F   F
  0.6661389024502640  0.3357142481040611  0.3788874914562541   F   F   F
  0.2449050000000028  0.7526999999999973  0.1934359999999984   F   F   F
  0.4984030000000033  0.7498829999999970  0.1926070000000024   F   F   F
  0.3480143062749548  0.6726358311675256  0.2886978177724089   F   F   F
  0.1647060000000025  0.5862709999999964  0.0973309999999969   F   F   F
  0.1704214155498178  0.5901257443493080  0.3847381545931867   F   F   F
  0.5840254707370462  0.6721366078039850  0.2878343666944829   F   F   F
  0.8287423495307706  0.6612928618121572  0.2881817575004888   F   F   F
  0.6676250000000010  0.5842620000000025  0.0951990000000009   F   F   F
  0.6672531658318803  0.5869390088413198  0.3888060847414536   F   F   F
  0.0815757113272966  0.9162995900219357  0.2847667736478385   F   F   F
  0.3338345804944893  0.9141419302981788  0.2878285764580184   F   F   F
  0.5832497222277055  0.9102310681990105  0.2885433216685058   F   F   F
  0.8199150821972125  0.9102911458416756  0.2874946679234895   F   F   F
  0.6684139999999985  0.8335110000000014  0.0965980000000002   F   F   F
  0.6654753143591066  0.8331418608415149  0.3901708958394252   F   F   F
  0.0067546037118689  0.0123712892713215  0.4358337001624477   F   F   F
  0.4942324212950737  0.4919027905303182  0.4371536597589554   F   F   F
  0.0025052089203683  0.5040631432189073  0.4361388935941406   F   F   F
  0.4987680701865003  0.0042538987877094  0.4361692112252555   F   F   F
  0.6822454691565838  0.8292910626448347  0.4742031003847060   T   T   T
  0.7838893132724039  0.8869955321028941  0.4923269676123904   T   T   T
 
  0.00000000E+00  0.00000000E+00  0.00000000E+00
  0.00000000E+00  0.00000000E+00  0.00000000E+00
  0.00000000E+00  0.00000000E+00  0.00000000E+00
  0.00000000E+00  0.00000000E+00  0.00000000E+00
  0.00000000E+00  0.00000000E+00  0.00000000E+00
  0.00000000E+00  0.00000000E+00  0.00000000E+00
  0.00000000E+00  0.00000000E+00  0.00000000E+00
  0.00000000E+00  0.00000000E+00  0.00000000E+00
  0.00000000E+00  0.00000000E+00  0.00000000E+00
  0.00000000E+00  0.00000000E+00  0.00000000E+00
  0.00000000E+00  0.00000000E+00  0.00000000E+00
  0.00000000E+00  0.00000000E+00  0.00000000E+00
  0.00000000E+00  0.00000000E+00  0.00000000E+00
  0.00000000E+00  0.00000000E+00  0.00000000E+00
  0.00000000E+00  0.00000000E+00  0.00000000E+00
  0.00000000E+00  0.00000000E+00  0.00000000E+00
  0.00000000E+00  0.00000000E+00  0.00000000E+00
  0.00000000E+00  0.00000000E+00  0.00000000E+00
  0.00000000E+00  0.00000000E+00  0.00000000E+00
  0.00000000E+00  0.00000000E+00  0.00000000E+00
  0.00000000E+00  0.00000000E+00  0.00000000E+00
  0.00000000E+00  0.00000000E+00  0.00000000E+00
  0.00000000E+00  0.00000000E+00  0.00000000E+00
  0.00000000E+00  0.00000000E+00  0.00000000E+00
  0.00000000E+00  0.00000000E+00  0.00000000E+00
  0.00000000E+00  0.00000000E+00  0.00000000E+00
  0.00000000E+00  0.00000000E+00  0.00000000E+00
  0.00000000E+00  0.00000000E+00  0.00000000E+00
  0.00000000E+00  0.00000000E+00  0.00000000E+00
  0.00000000E+00  0.00000000E+00  0.00000000E+00
  0.00000000E+00  0.00000000E+00  0.00000000E+00
  0.00000000E+00  0.00000000E+00  0.00000000E+00
  0.00000000E+00  0.00000000E+00  0.00000000E+00
  0.00000000E+00  0.00000000E+00  0.00000000E+00
  0.00000000E+00  0.00000000E+00  0.00000000E+00
  0.00000000E+00  0.00000000E+00  0.00000000E+00
  0.00000000E+00  0.00000000E+00  0.00000000E+00
  0.00000000E+00  0.00000000E+00  0.00000000E+00
  0.00000000E+00  0.00000000E+00  0.00000000E+00
  0.00000000E+00  0.00000000E+00  0.00000000E+00
  0.00000000E+00  0.00000000E+00  0.00000000E+00
  0.00000000E+00  0.00000000E+00  0.00000000E+00
  0.00000000E+00  0.00000000E+00  0.00000000E+00
  0.00000000E+00  0.00000000E+00  0.00000000E+00
  0.00000000E+00  0.00000000E+00  0.00000000E+00
  0.00000000E+00  0.00000000E+00  0.00000000E+00
  0.00000000E+00  0.00000000E+00  0.00000000E+00
  0.00000000E+00  0.00000000E+00  0.00000000E+00
  0.00000000E+00  0.00000000E+00  0.00000000E+00
  0.00000000E+00  0.00000000E+00  0.00000000E+00
  0.00000000E+00  0.00000000E+00  0.00000000E+00
  0.00000000E+00  0.00000000E+00  0.00000000E+00
  0.00000000E+00  0.00000000E+00  0.00000000E+00
  0.00000000E+00  0.00000000E+00  0.00000000E+00
  0.00000000E+00  0.00000000E+00  0.00000000E+00
  0.00000000E+00  0.00000000E+00  0.00000000E+00
  0.00000000E+00  0.00000000E+00  0.00000000E+00
  0.00000000E+00  0.00000000E+00  0.00000000E+00
  0.00000000E+00  0.00000000E+00  0.00000000E+00
  0.00000000E+00  0.00000000E+00  0.00000000E+00
  0.00000000E+00  0.00000000E+00  0.00000000E+00
  0.00000000E+00  0.00000000E+00  0.00000000E+00
  0.00000000E+00  0.00000000E+00  0.00000000E+00
  0.00000000E+00  0.00000000E+00  0.00000000E+00
  0.00000000E+00  0.00000000E+00  0.00000000E+00
  0.00000000E+00  0.00000000E+00  0.00000000E+00
  0.00000000E+00  0.00000000E+00  0.00000000E+00
  0.00000000E+00  0.00000000E+00  0.00000000E+00
  0.00000000E+00  0.00000000E+00  0.00000000E+00
  0.00000000E+00  0.00000000E+00  0.00000000E+00
