POSCAR                                  
   1.00000000000000     
    10.1003100000000003    0.0000000000000000    0.0000000000000000
    -5.0501550000000002    8.7471250499999993    0.0000000000000000
     0.0000000000000000    0.0000000000000000   21.2537999999999982
   Ni   Fe   O 
    33    31     5
Selective dynamics
Direct
  0.9990430000000003  0.0006419999999991  0.1905229999999989   F   F   F
  0.2484910000000013  0.9986279999999965  0.1920550000000034   F   F   F
  0.4990250000000032  0.0019270000000020  0.1918059999999997   F   F   F
  0.9981390000000019  0.2506739999999965  0.1919419999999974   F   F   F
  0.2492149999999995  0.2488620000000026  0.1911860000000019   F   F   F
  0.3333920004800390  0.1649713192647226  0.2862134031647372   T   T   T
  0.7489350000000030  0.2527809999999988  0.1931749999999965   F   F   F
  0.4183749999999975  0.0839399999999983  0.0941180000000017   F   F   F
  0.4127337716929702  0.0873414051308643  0.3811531386039562   T   T   T
  0.8322180518138325  0.1635557713950462  0.2904528601657503   T   T   T
  0.6679699999999968  0.0847229999999968  0.0956929999999971   F   F   F
  0.6620145482350708  0.0913993125954136  0.3896734836555495   T   T   T
  0.9990859999999984  0.4991079999999997  0.1930400000000034   F   F   F
  0.7481689999999972  0.4987110000000001  0.1920459999999977   F   F   F
  0.5819875645123318  0.4118831430531529  0.2855671802545459   T   T   T
  0.4196099999999987  0.3333709999999996  0.0941400000000030   F   F   F
  0.4150555147709412  0.3324012897020339  0.3813723760080023   T   T   T
  0.8292189957757614  0.4130234041126144  0.2869784886206332   T   T   T
  0.9185590000000019  0.3350160000000031  0.0956869999999981   F   F   F
  0.9144531031797882  0.3335948579174541  0.3835732661568017   T   T   T
  0.9976580000000013  0.7489690000000024  0.1925600000000003   F   F   F
  0.0792828464873310  0.6618086490247492  0.2872387841601736   T   T   T
  0.7534649999999985  0.7517280000000000  0.1916289999999989   F   F   F
  0.4173729999999978  0.5835239999999970  0.0962340000000026   F   F   F
  0.4136317480079228  0.5848494298958258  0.3855025187484316   T   T   T
  0.9155080000000027  0.5846190000000036  0.0954290000000029   F   F   F
  0.9068055180184302  0.5828633297836561  0.3844465262715318   T   T   T
  0.1668289999999999  0.8349079999999987  0.0945669999999978   F   F   F
  0.1638482915970272  0.8357022609563458  0.3769740980379552   T   T   T
  0.4171529999999990  0.8333879999999994  0.0967929999999981   F   F   F
  0.4063656687544537  0.8265098572055507  0.3846515347364345   T   T   T
  0.9198510000000013  0.8326369999999983  0.0953980000000030   F   F   F
  0.9144798335606978  0.8258322072723416  0.3830562457003097   T   T   T
  0.7491819999999976  0.0045379999999966  0.1931129999999968   F   F   F
  0.0809416950154613  0.1641110186715551  0.2851045245151482   T   T   T
  0.4931899999999985  0.2454400000000021  0.1916780000000031   F   F   F
  0.1713960000000014  0.0833930000000009  0.0953590000000020   F   F   F
  0.1758581902998060  0.0909094077224992  0.3807629887203063   T   T   T
  0.5834816220869428  0.1563771619869740  0.2867311039418112   T   T   T
  0.9169309999999982  0.0858149999999966  0.0941010000000020   F   F   F
  0.9192198771202982  0.0894367850831230  0.3890180910542398   T   T   T
  0.2459640000000007  0.4966930000000005  0.1936990000000023   F   F   F
  0.0737486310120445  0.4151996781590341  0.2870334979247318   T   T   T
  0.5029729999999972  0.4996209999999977  0.1909629999999964   F   F   F
  0.3357290384822420  0.4146132126283746  0.2867642994814759   T   T   T
  0.1708140000000000  0.3372420000000034  0.0955050000000028   F   F   F
  0.1673174748099342  0.3372646340829135  0.3782306812412415   T   T   T
  0.6726469999999978  0.3359809999999968  0.0960030000000032   F   F   F
  0.6661935836488553  0.3381399662023838  0.3782615976970263   T   T   T
  0.2449050000000028  0.7526999999999973  0.1934359999999984   F   F   F
  0.4984030000000033  0.7498829999999970  0.1926070000000024   F   F   F
  0.3349705846564248  0.6603412161643618  0.2894168257782468   T   T   T
  0.1647060000000025  0.5862709999999964  0.0973309999999969   F   F   F
  0.1669160669902539  0.5887111786884489  0.3862528736252600   T   T   T
  0.5869403146261760  0.6644290212127473  0.2868379238010590   T   T   T
  0.8288489947847708  0.6567354171194140  0.2873752662849967   T   T   T
  0.6676250000000010  0.5842620000000025  0.0951990000000009   F   F   F
  0.6670276625816030  0.5894628457033448  0.3857461495295169   T   T   T
  0.0792846751677061  0.9113660087887823  0.2844468927148540   T   T   T
  0.3302078202110792  0.9104840981473359  0.2867508755192958   T   T   T
  0.5781893766609301  0.9122803034278348  0.2846977374296813   T   T   T
  0.8315457908241228  0.9141901925553597  0.2882640268732644   T   T   T
  0.6684139999999985  0.8335110000000014  0.0965980000000002   F   F   F
  0.6576701097559408  0.8302685852659906  0.3831363443308575   T   T   T
  0.0155019908606846  0.0023843547480737  0.4341179628427341   T   T   T
  0.5021276166502844  0.4973389258573704  0.4373416855223056   T   T   T
  0.9988458930278270  0.5020112216548753  0.4372684851374871   T   T   T
  0.4779960981024232  0.9964115778090346  0.4358041512151800   T   T   T
  0.7462883891480772  0.9938990892128672  0.4371885985839512   T   T   T
 
  0.00000000E+00  0.00000000E+00  0.00000000E+00
  0.00000000E+00  0.00000000E+00  0.00000000E+00
  0.00000000E+00  0.00000000E+00  0.00000000E+00
  0.00000000E+00  0.00000000E+00  0.00000000E+00
  0.00000000E+00  0.00000000E+00  0.00000000E+00
  0.00000000E+00  0.00000000E+00  0.00000000E+00
  0.00000000E+00  0.00000000E+00  0.00000000E+00
  0.00000000E+00  0.00000000E+00  0.00000000E+00
  0.00000000E+00  0.00000000E+00  0.00000000E+00
  0.00000000E+00  0.00000000E+00  0.00000000E+00
  0.00000000E+00  0.00000000E+00  0.00000000E+00
  0.00000000E+00  0.00000000E+00  0.00000000E+00
  0.00000000E+00  0.00000000E+00  0.00000000E+00
  0.00000000E+00  0.00000000E+00  0.00000000E+00
  0.00000000E+00  0.00000000E+00  0.00000000E+00
  0.00000000E+00  0.00000000E+00  0.00000000E+00
  0.00000000E+00  0.00000000E+00  0.00000000E+00
  0.00000000E+00  0.00000000E+00  0.00000000E+00
  0.00000000E+00  0.00000000E+00  0.00000000E+00
  0.00000000E+00  0.00000000E+00  0.00000000E+00
  0.00000000E+00  0.00000000E+00  0.00000000E+00
  0.00000000E+00  0.00000000E+00  0.00000000E+00
  0.00000000E+00  0.00000000E+00  0.00000000E+00
  0.00000000E+00  0.00000000E+00  0.00000000E+00
  0.00000000E+00  0.00000000E+00  0.00000000E+00
  0.00000000E+00  0.00000000E+00  0.00000000E+00
  0.00000000E+00  0.00000000E+00  0.00000000E+00
  0.00000000E+00  0.00000000E+00  0.00000000E+00
  0.00000000E+00  0.00000000E+00  0.00000000E+00
  0.00000000E+00  0.00000000E+00  0.00000000E+00
  0.00000000E+00  0.00000000E+00  0.00000000E+00
  0.00000000E+00  0.00000000E+00  0.00000000E+00
  0.00000000E+00  0.00000000E+00  0.00000000E+00
  0.00000000E+00  0.00000000E+00  0.00000000E+00
  0.00000000E+00  0.00000000E+00  0.00000000E+00
  0.00000000E+00  0.00000000E+00  0.00000000E+00
  0.00000000E+00  0.00000000E+00  0.00000000E+00
  0.00000000E+00  0.00000000E+00  0.00000000E+00
  0.00000000E+00  0.00000000E+00  0.00000000E+00
  0.00000000E+00  0.00000000E+00  0.00000000E+00
  0.00000000E+00  0.00000000E+00  0.00000000E+00
  0.00000000E+00  0.00000000E+00  0.00000000E+00
  0.00000000E+00  0.00000000E+00  0.00000000E+00
  0.00000000E+00  0.00000000E+00  0.00000000E+00
  0.00000000E+00  0.00000000E+00  0.00000000E+00
  0.00000000E+00  0.00000000E+00  0.00000000E+00
  0.00000000E+00  0.00000000E+00  0.00000000E+00
  0.00000000E+00  0.00000000E+00  0.00000000E+00
  0.00000000E+00  0.00000000E+00  0.00000000E+00
  0.00000000E+00  0.00000000E+00  0.00000000E+00
  0.00000000E+00  0.00000000E+00  0.00000000E+00
  0.00000000E+00  0.00000000E+00  0.00000000E+00
  0.00000000E+00  0.00000000E+00  0.00000000E+00
  0.00000000E+00  0.00000000E+00  0.00000000E+00
  0.00000000E+00  0.00000000E+00  0.00000000E+00
  0.00000000E+00  0.00000000E+00  0.00000000E+00
  0.00000000E+00  0.00000000E+00  0.00000000E+00
  0.00000000E+00  0.00000000E+00  0.00000000E+00
  0.00000000E+00  0.00000000E+00  0.00000000E+00
  0.00000000E+00  0.00000000E+00  0.00000000E+00
  0.00000000E+00  0.00000000E+00  0.00000000E+00
  0.00000000E+00  0.00000000E+00  0.00000000E+00
  0.00000000E+00  0.00000000E+00  0.00000000E+00
  0.00000000E+00  0.00000000E+00  0.00000000E+00
  0.00000000E+00  0.00000000E+00  0.00000000E+00
  0.00000000E+00  0.00000000E+00  0.00000000E+00
  0.00000000E+00  0.00000000E+00  0.00000000E+00
  0.00000000E+00  0.00000000E+00  0.00000000E+00
  0.00000000E+00  0.00000000E+00  0.00000000E+00
