POSCAR                                  
   1.00000000000000     
    10.0267700000000008    0.0000000000000000    0.0000000000000000
    -5.0133850000000004    8.6834375399999999    0.0000000000000000
     0.0000000000000000    0.0000000000000000   21.1891795599999995
   Ni   Fe
    49    15
Selective dynamics
Direct
  0.0007281544509204  0.0011012537320519  0.2877014652543458   T   T   T
  0.2508873683841409  0.0017287142248021  0.2868651265299891   T   T   T
  0.4995712960733342  0.9994296958241162  0.2886932787559149   T   T   T
  0.7488192075456157  0.9993686304049484  0.2884724135577443   T   T   T
  0.0000020227084218  0.2496438273572291  0.2885864531567086   T   T   T
  0.2514681430914402  0.2524846601080326  0.2890948116819097   T   T   T
  0.0828819999999979  0.1663319999999970  0.0956764299999975   F   F   F
  0.0818135229144529  0.1656575422426002  0.3832604320957412   T   T   T
  0.5004514113566074  0.2507893902692447  0.2882910666292056   T   T   T
  0.3329390000000032  0.1668579999999977  0.0957422099999974   F   F   F
  0.3333836312150297  0.1660167540746714  0.3824661912253098   T   T   T
  0.7505410730485318  0.2515848334566764  0.2902185637601464   T   T   T
  0.5823070000000001  0.1672009999999986  0.0967031100000000   F   F   F
  0.5806663100858306  0.1643356911438127  0.3837214169769436   T   T   T
  0.8340320000000006  0.1667240000000021  0.0964507099999992   F   F   F
  0.8349163902456801  0.1652418602585361  0.3833422138130599   T   T   T
  0.6655810000000031  0.0830550000000017  0.1925825200000020   F   F   F
  0.9163970000000035  0.0820310000000006  0.1920493300000032   F   F   F
  0.0011971996436313  0.5007165124341783  0.2868580393768356   T   T   T
  0.0809220000000010  0.4160970000000006  0.0959476600000002   F   F   F
  0.0832072163852253  0.4148520019140825  0.3830406142071138   T   T   T
  0.1661179999999973  0.3339519999999965  0.1920754100000011   F   F   F
  0.7517170703589865  0.5017575174993993  0.2877873587668394   T   T   T
  0.5835730000000012  0.4161720000000031  0.0959334599999977   F   F   F
  0.5822161335757058  0.4145912848690906  0.3843291163753390   T   T   T
  0.0012545424742766  0.7515436617120927  0.2883138725628193   T   T   T
  0.2493365026493177  0.7491595845094906  0.2871197048495299   T   T   T
  0.0837580000000031  0.6681039999999996  0.0947972499999992   F   F   F
  0.0831421798815030  0.6664253787843524  0.3819146878620181   T   T   T
  0.5001095310694728  0.7496096690862523  0.2883694998496779   T   T   T
  0.3329740000000001  0.6672769999999986  0.0943877999999998   F   F   F
  0.3311103623875767  0.6666168177422620  0.3822198833169686   T   T   T
  0.7507807643705317  0.7502485117035051  0.2876385019060489   T   T   T
  0.5829809999999966  0.6666820000000016  0.0945095000000009   F   F   F
  0.5856929322577976  0.6670448836285842  0.3832133401908795   T   T   T
  0.4166099999999986  0.5820020000000028  0.1908166300000005   F   F   F
  0.8339590000000001  0.6677060000000026  0.0949789399999972   F   F   F
  0.8336049301534675  0.6668402248543286  0.3824303503062674   T   T   T
  0.9170829999999981  0.5832389999999990  0.1907943100000011   F   F   F
  0.0829170000000019  0.9168579999999977  0.0951861300000019   F   F   F
  0.0828826584944812  0.9171388361181875  0.3821933877309281   T   T   T
  0.3342060000000018  0.9170540000000003  0.0953817299999997   F   F   F
  0.3325619473124063  0.9158453919692661  0.3824366856211553   T   T   T
  0.1667089999999973  0.8352420000000009  0.1913654600000001   F   F   F
  0.4170349999999985  0.8321490000000011  0.1920586099999966   F   F   F
  0.8323310000000035  0.9171499999999995  0.0963365400000029   F   F   F
  0.8331670112235083  0.9164536818762337  0.3832198895045618   T   T   T
  0.6662389999999974  0.8333700000000022  0.1923408500000008   F   F   F
  0.9170590000000018  0.8331950000000035  0.1921617699999985   F   F   F
  0.1616849999999985  0.0821150000000017  0.1913060600000023   F   F   F
  0.4160749999999993  0.0780710000000013  0.1917726000000002   F   F   F
  0.2496382579896881  0.4998029074986787  0.2887146465587042   T   T   T
  0.5052042136802346  0.5026872090790321  0.2908773066530217   T   T   T
  0.3313410000000019  0.4171430000000029  0.0957761199999965   F   F   F
  0.3331669848762029  0.4166316414647382  0.3869157118580603   T   T   T
  0.4163840000000008  0.3314430000000002  0.1925219600000005   F   F   F
  0.8335480000000004  0.4183900000000023  0.0944877700000006   F   F   F
  0.8334010304083839  0.4159901219928900  0.3839181796853957   T   T   T
  0.6673240000000007  0.3324059999999989  0.1943547899999984   F   F   F
  0.9144640000000024  0.3269549999999981  0.1939650400000019   F   F   F
  0.1691420000000008  0.5883340000000032  0.1894778599999967   F   F   F
  0.6696159999999978  0.5892890000000008  0.1898600700000017   F   F   F
  0.5831039999999987  0.9165149999999969  0.0958349400000031   F   F   F
  0.5839943347544544  0.9162422718671941  0.3833475174024591   T   T   T
 
  0.00000000E+00  0.00000000E+00  0.00000000E+00
  0.00000000E+00  0.00000000E+00  0.00000000E+00
  0.00000000E+00  0.00000000E+00  0.00000000E+00
  0.00000000E+00  0.00000000E+00  0.00000000E+00
  0.00000000E+00  0.00000000E+00  0.00000000E+00
  0.00000000E+00  0.00000000E+00  0.00000000E+00
  0.00000000E+00  0.00000000E+00  0.00000000E+00
  0.00000000E+00  0.00000000E+00  0.00000000E+00
  0.00000000E+00  0.00000000E+00  0.00000000E+00
  0.00000000E+00  0.00000000E+00  0.00000000E+00
  0.00000000E+00  0.00000000E+00  0.00000000E+00
  0.00000000E+00  0.00000000E+00  0.00000000E+00
  0.00000000E+00  0.00000000E+00  0.00000000E+00
  0.00000000E+00  0.00000000E+00  0.00000000E+00
  0.00000000E+00  0.00000000E+00  0.00000000E+00
  0.00000000E+00  0.00000000E+00  0.00000000E+00
  0.00000000E+00  0.00000000E+00  0.00000000E+00
  0.00000000E+00  0.00000000E+00  0.00000000E+00
  0.00000000E+00  0.00000000E+00  0.00000000E+00
  0.00000000E+00  0.00000000E+00  0.00000000E+00
  0.00000000E+00  0.00000000E+00  0.00000000E+00
  0.00000000E+00  0.00000000E+00  0.00000000E+00
  0.00000000E+00  0.00000000E+00  0.00000000E+00
  0.00000000E+00  0.00000000E+00  0.00000000E+00
  0.00000000E+00  0.00000000E+00  0.00000000E+00
  0.00000000E+00  0.00000000E+00  0.00000000E+00
  0.00000000E+00  0.00000000E+00  0.00000000E+00
  0.00000000E+00  0.00000000E+00  0.00000000E+00
  0.00000000E+00  0.00000000E+00  0.00000000E+00
  0.00000000E+00  0.00000000E+00  0.00000000E+00
  0.00000000E+00  0.00000000E+00  0.00000000E+00
  0.00000000E+00  0.00000000E+00  0.00000000E+00
  0.00000000E+00  0.00000000E+00  0.00000000E+00
  0.00000000E+00  0.00000000E+00  0.00000000E+00
  0.00000000E+00  0.00000000E+00  0.00000000E+00
  0.00000000E+00  0.00000000E+00  0.00000000E+00
  0.00000000E+00  0.00000000E+00  0.00000000E+00
  0.00000000E+00  0.00000000E+00  0.00000000E+00
  0.00000000E+00  0.00000000E+00  0.00000000E+00
  0.00000000E+00  0.00000000E+00  0.00000000E+00
  0.00000000E+00  0.00000000E+00  0.00000000E+00
  0.00000000E+00  0.00000000E+00  0.00000000E+00
  0.00000000E+00  0.00000000E+00  0.00000000E+00
  0.00000000E+00  0.00000000E+00  0.00000000E+00
  0.00000000E+00  0.00000000E+00  0.00000000E+00
  0.00000000E+00  0.00000000E+00  0.00000000E+00
  0.00000000E+00  0.00000000E+00  0.00000000E+00
  0.00000000E+00  0.00000000E+00  0.00000000E+00
  0.00000000E+00  0.00000000E+00  0.00000000E+00
  0.00000000E+00  0.00000000E+00  0.00000000E+00
  0.00000000E+00  0.00000000E+00  0.00000000E+00
  0.00000000E+00  0.00000000E+00  0.00000000E+00
  0.00000000E+00  0.00000000E+00  0.00000000E+00
  0.00000000E+00  0.00000000E+00  0.00000000E+00
  0.00000000E+00  0.00000000E+00  0.00000000E+00
  0.00000000E+00  0.00000000E+00  0.00000000E+00
  0.00000000E+00  0.00000000E+00  0.00000000E+00
  0.00000000E+00  0.00000000E+00  0.00000000E+00
  0.00000000E+00  0.00000000E+00  0.00000000E+00
  0.00000000E+00  0.00000000E+00  0.00000000E+00
  0.00000000E+00  0.00000000E+00  0.00000000E+00
  0.00000000E+00  0.00000000E+00  0.00000000E+00
  0.00000000E+00  0.00000000E+00  0.00000000E+00
  0.00000000E+00  0.00000000E+00  0.00000000E+00
