POSCAR                                  
   1.00000000000000     
    10.0267700000000008    0.0000000000000000    0.0000000000000000
    -5.0133850000000004    8.6834375399999999    0.0000000000000000
     0.0000000000000000    0.0000000000000000   21.1891800000000003
   Ni   Fe   O 
    49    15     4
Selective dynamics
Direct
  0.9990007986039942  0.0004979915292083  0.2877579704698334   T   T   T
  0.2492071213379319  0.0011391872114004  0.2854496176252681   T   T   T
  0.4992063381061911  0.9997889188530493  0.2879761392176761   T   T   T
  0.7481458793201838  0.9989688682807909  0.2866582180192623   T   T   T
  0.9994160813421331  0.2488744939182794  0.2872018515768815   T   T   T
  0.2514310498257686  0.2524921905985735  0.2875325246477374   T   T   T
  0.0828819999999979  0.1663319999999970  0.0956759999999974   F   F   F
  0.0796616594569457  0.1607323348803291  0.3850256090202322   T   T   T
  0.4991923784131771  0.2497708423221638  0.2867677893152916   T   T   T
  0.3329390000000032  0.1668579999999977  0.0957420000000013   F   F   F
  0.3322745753754290  0.1671935703899052  0.3791573921330311   T   T   T
  0.7502913486209977  0.2518634304107792  0.2883560914280423   T   T   T
  0.5823070000000001  0.1672009999999986  0.0967029999999980   F   F   F
  0.5793779474647636  0.1602611070823414  0.3844154873824763   T   T   T
  0.8340320000000006  0.1667240000000021  0.0964510000000018   F   F   F
  0.8321018089362369  0.1642357405041466  0.3794049391394552   T   T   T
  0.6655810000000031  0.0830550000000017  0.1925829999999991   F   F   F
  0.9163970000000035  0.0820310000000006  0.1920489999999972   F   F   F
  0.0021422389491832  0.5011429163336913  0.2864912976982481   T   T   T
  0.0809220000000010  0.4160970000000006  0.0959479999999999   F   F   F
  0.0797458963867541  0.4175849549725186  0.3840107821712593   T   T   T
  0.1661179999999973  0.3339519999999965  0.1920750000000027   F   F   F
  0.7512125808713535  0.5009956434871725  0.2863117064598555   T   T   T
  0.5835730000000012  0.4161720000000031  0.0959330000000023   F   F   F
  0.5807366930062514  0.4194205357930585  0.3856560750368843   T   T   T
  0.0012142739596257  0.7516896756647640  0.2864425002033997   T   T   T
  0.2496844007983867  0.7499138068437219  0.2856700872819573   T   T   T
  0.0837580000000031  0.6681039999999996  0.0947969999999998   F   F   F
  0.0823938281583168  0.6631518679446060  0.3834209874947589   T   T   T
  0.5008224281631044  0.7495221145361981  0.2870806547604730   T   T   T
  0.3329740000000001  0.6672769999999986  0.0943880000000021   F   F   F
  0.3329552965781915  0.6657581984871754  0.3790538186170522   T   T   T
  0.7505241807679184  0.7496009106774295  0.2862035019749811   T   T   T
  0.5829809999999966  0.6666820000000016  0.0945090000000022   F   F   F
  0.5811155133607713  0.6611618225827911  0.3854905361876604   T   T   T
  0.4166099999999986  0.5820020000000028  0.1908170000000027   F   F   F
  0.8339590000000001  0.6677060000000026  0.0949790000000021   F   F   F
  0.8336535797515054  0.6658324166840259  0.3790303625255333   T   T   T
  0.9170829999999981  0.5832389999999990  0.1907939999999968   F   F   F
  0.0829170000000019  0.9168579999999977  0.0951859999999982   F   F   F
  0.0814945746217717  0.9185279050586175  0.3839706586112186   T   T   T
  0.3342060000000018  0.9170540000000003  0.0953820000000007   F   F   F
  0.3368308781064613  0.9185822064203819  0.3836375103821013   T   T   T
  0.1667089999999973  0.8352420000000009  0.1913649999999976   F   F   F
  0.4170349999999985  0.8321490000000011  0.1920590000000004   F   F   F
  0.8323310000000035  0.9171499999999995  0.0963369999999983   F   F   F
  0.8383338718910807  0.9185686571528962  0.3842170175259625   T   T   T
  0.6662389999999974  0.8333700000000022  0.1923409999999990   F   F   F
  0.9170590000000018  0.8331950000000035  0.1921620000000033   F   F   F
  0.1616849999999985  0.0821150000000017  0.1913059999999973   F   F   F
  0.4160749999999993  0.0780710000000013  0.1917729999999978   F   F   F
  0.2490631768785505  0.4988476698739035  0.2877899192566389   T   T   T
  0.5057488324603767  0.5026899660151898  0.2895511386070311   T   T   T
  0.3313410000000019  0.4171430000000029  0.0957760000000007   F   F   F
  0.3374143132684395  0.4172498335278263  0.3873080888508582   T   T   T
  0.4163840000000008  0.3314430000000002  0.1925219999999968   F   F   F
  0.8335480000000004  0.4183900000000023  0.0944879999999984   F   F   F
  0.8367095433197349  0.4186807755023878  0.3837784914437776   T   T   T
  0.6673240000000007  0.3324059999999989  0.1943550000000016   F   F   F
  0.9144640000000024  0.3269549999999981  0.1939649999999986   F   F   F
  0.1691420000000008  0.5883340000000032  0.1894780000000011   F   F   F
  0.6696159999999978  0.5892890000000008  0.1898600000000030   F   F   F
  0.5831039999999987  0.9165149999999969  0.0958350000000010   F   F   F
  0.5815685710818528  0.9179267568312355  0.3832771170872675   T   T   T
  0.6703113296470491  0.3319907455917033  0.4366481180815143   T   T   T
  0.1670159611490334  0.8334595610085813  0.4349753183331728   T   T   T
  0.1639480017030124  0.3322814866031294  0.4374679619890856   T   T   T
  0.6672388104980271  0.8372009916753100  0.4364400876327963   T   T   T
 
  0.00000000E+00  0.00000000E+00  0.00000000E+00
  0.00000000E+00  0.00000000E+00  0.00000000E+00
  0.00000000E+00  0.00000000E+00  0.00000000E+00
  0.00000000E+00  0.00000000E+00  0.00000000E+00
  0.00000000E+00  0.00000000E+00  0.00000000E+00
  0.00000000E+00  0.00000000E+00  0.00000000E+00
  0.00000000E+00  0.00000000E+00  0.00000000E+00
  0.00000000E+00  0.00000000E+00  0.00000000E+00
  0.00000000E+00  0.00000000E+00  0.00000000E+00
  0.00000000E+00  0.00000000E+00  0.00000000E+00
  0.00000000E+00  0.00000000E+00  0.00000000E+00
  0.00000000E+00  0.00000000E+00  0.00000000E+00
  0.00000000E+00  0.00000000E+00  0.00000000E+00
  0.00000000E+00  0.00000000E+00  0.00000000E+00
  0.00000000E+00  0.00000000E+00  0.00000000E+00
  0.00000000E+00  0.00000000E+00  0.00000000E+00
  0.00000000E+00  0.00000000E+00  0.00000000E+00
  0.00000000E+00  0.00000000E+00  0.00000000E+00
  0.00000000E+00  0.00000000E+00  0.00000000E+00
  0.00000000E+00  0.00000000E+00  0.00000000E+00
  0.00000000E+00  0.00000000E+00  0.00000000E+00
  0.00000000E+00  0.00000000E+00  0.00000000E+00
  0.00000000E+00  0.00000000E+00  0.00000000E+00
  0.00000000E+00  0.00000000E+00  0.00000000E+00
  0.00000000E+00  0.00000000E+00  0.00000000E+00
  0.00000000E+00  0.00000000E+00  0.00000000E+00
  0.00000000E+00  0.00000000E+00  0.00000000E+00
  0.00000000E+00  0.00000000E+00  0.00000000E+00
  0.00000000E+00  0.00000000E+00  0.00000000E+00
  0.00000000E+00  0.00000000E+00  0.00000000E+00
  0.00000000E+00  0.00000000E+00  0.00000000E+00
  0.00000000E+00  0.00000000E+00  0.00000000E+00
  0.00000000E+00  0.00000000E+00  0.00000000E+00
  0.00000000E+00  0.00000000E+00  0.00000000E+00
  0.00000000E+00  0.00000000E+00  0.00000000E+00
  0.00000000E+00  0.00000000E+00  0.00000000E+00
  0.00000000E+00  0.00000000E+00  0.00000000E+00
  0.00000000E+00  0.00000000E+00  0.00000000E+00
  0.00000000E+00  0.00000000E+00  0.00000000E+00
  0.00000000E+00  0.00000000E+00  0.00000000E+00
  0.00000000E+00  0.00000000E+00  0.00000000E+00
  0.00000000E+00  0.00000000E+00  0.00000000E+00
  0.00000000E+00  0.00000000E+00  0.00000000E+00
  0.00000000E+00  0.00000000E+00  0.00000000E+00
  0.00000000E+00  0.00000000E+00  0.00000000E+00
  0.00000000E+00  0.00000000E+00  0.00000000E+00
  0.00000000E+00  0.00000000E+00  0.00000000E+00
  0.00000000E+00  0.00000000E+00  0.00000000E+00
  0.00000000E+00  0.00000000E+00  0.00000000E+00
  0.00000000E+00  0.00000000E+00  0.00000000E+00
  0.00000000E+00  0.00000000E+00  0.00000000E+00
  0.00000000E+00  0.00000000E+00  0.00000000E+00
  0.00000000E+00  0.00000000E+00  0.00000000E+00
  0.00000000E+00  0.00000000E+00  0.00000000E+00
  0.00000000E+00  0.00000000E+00  0.00000000E+00
  0.00000000E+00  0.00000000E+00  0.00000000E+00
  0.00000000E+00  0.00000000E+00  0.00000000E+00
  0.00000000E+00  0.00000000E+00  0.00000000E+00
  0.00000000E+00  0.00000000E+00  0.00000000E+00
  0.00000000E+00  0.00000000E+00  0.00000000E+00
  0.00000000E+00  0.00000000E+00  0.00000000E+00
  0.00000000E+00  0.00000000E+00  0.00000000E+00
  0.00000000E+00  0.00000000E+00  0.00000000E+00
  0.00000000E+00  0.00000000E+00  0.00000000E+00
  0.00000000E+00  0.00000000E+00  0.00000000E+00
  0.00000000E+00  0.00000000E+00  0.00000000E+00
  0.00000000E+00  0.00000000E+00  0.00000000E+00
  0.00000000E+00  0.00000000E+00  0.00000000E+00
