POSCAR                                  
   1.00000000000000     
    10.1003100000000003    0.0000000000000000    0.0000000000000000
    -5.0501550000000002    8.7471250499999993    0.0000000000000000
     0.0000000000000000    0.0000000000000000   21.2537999999999982
   Ni   Fe   O 
    33    31     5
Selective dynamics
Direct
  0.9990430000000003  0.0006419999999991  0.1905229999999989   F   F   F
  0.2484910000000013  0.9986279999999965  0.1920550000000034   F   F   F
  0.4990250000000032  0.0019270000000020  0.1918059999999997   F   F   F
  0.9981390000000019  0.2506739999999965  0.1919419999999974   F   F   F
  0.2492149999999995  0.2488620000000026  0.1911860000000019   F   F   F
  0.3333920004800396  0.1649713192647224  0.2862134031647348   F   F   F
  0.7489350000000030  0.2527809999999988  0.1931749999999965   F   F   F
  0.4183749999999975  0.0839399999999983  0.0941180000000017   F   F   F
  0.4127337716929718  0.0873414051308621  0.3811531386039586   F   F   F
  0.8322180518138328  0.1635557713950485  0.2904528601657487   F   F   F
  0.6679699999999968  0.0847229999999968  0.0956929999999971   F   F   F
  0.6620145482350684  0.0913993125954141  0.3896734836555530   F   F   F
  0.9990859999999984  0.4991079999999997  0.1930400000000034   F   F   F
  0.7481689999999972  0.4987110000000001  0.1920459999999977   F   F   F
  0.5819875645123314  0.4118831430531537  0.2855671802545492   F   F   F
  0.4196099999999987  0.3333709999999996  0.0941400000000030   F   F   F
  0.4150555147709430  0.3324012897020321  0.3813723760080027   F   F   F
  0.8292189957757613  0.4130234041126130  0.2869784886206324   F   F   F
  0.9185590000000019  0.3350160000000031  0.0956869999999981   F   F   F
  0.9144531031797902  0.3335948579174546  0.3835732661568027   F   F   F
  0.9976580000000013  0.7489690000000024  0.1925600000000003   F   F   F
  0.0792828464873281  0.6618086490247523  0.2872387841601768   F   F   F
  0.7534649999999985  0.7517280000000000  0.1916289999999989   F   F   F
  0.4173729999999978  0.5835239999999970  0.0962340000000026   F   F   F
  0.4136317480079227  0.5848494298958286  0.3855025187484337   F   F   F
  0.9155080000000027  0.5846190000000036  0.0954290000000029   F   F   F
  0.9068055180184301  0.5828633297836582  0.3844465262715335   F   F   F
  0.1668289999999999  0.8349079999999987  0.0945669999999978   F   F   F
  0.1638482915970279  0.8357022609563465  0.3769740980379545   F   F   F
  0.4171529999999990  0.8333879999999994  0.0967929999999981   F   F   F
  0.4063656687544525  0.8265098572055531  0.3846515347364354   F   F   F
  0.9198510000000013  0.8326369999999983  0.0953980000000030   F   F   F
  0.9144798335607013  0.8258322072723396  0.3830562457003121   F   F   F
  0.7491819999999976  0.0045379999999966  0.1931129999999968   F   F   F
  0.0809416950154579  0.1641110186715531  0.2851045245151460   F   F   F
  0.4931899999999985  0.2454400000000021  0.1916780000000031   F   F   F
  0.1713960000000014  0.0833930000000009  0.0953590000000020   F   F   F
  0.1758581902998090  0.0909094077224992  0.3807629887203086   F   F   F
  0.5834816220869400  0.1563771619869710  0.2867311039418139   F   F   F
  0.9169309999999982  0.0858149999999966  0.0941010000000020   F   F   F
  0.9192198771203000  0.0894367850831199  0.3890180910542389   F   F   F
  0.2459640000000007  0.4966930000000005  0.1936990000000023   F   F   F
  0.0737486310120465  0.4151996781590344  0.2870334979247287   F   F   F
  0.5029729999999972  0.4996209999999977  0.1909629999999964   F   F   F
  0.3357290384822388  0.4146132126283774  0.2867642994814771   F   F   F
  0.1708140000000000  0.3372420000000034  0.0955050000000028   F   F   F
  0.1673174748099328  0.3372646340829126  0.3782306812412394   F   F   F
  0.6726469999999978  0.3359809999999968  0.0960030000000032   F   F   F
  0.6661935836488567  0.3381399662023852  0.3782615976970295   F   F   F
  0.2449050000000028  0.7526999999999973  0.1934359999999984   F   F   F
  0.4984030000000033  0.7498829999999970  0.1926070000000024   F   F   F
  0.3349705846564267  0.6603412161643617  0.2894168257782496   F   F   F
  0.1647060000000025  0.5862709999999964  0.0973309999999969   F   F   F
  0.1669160669902550  0.5887111786884488  0.3862528736252625   F   F   F
  0.5869403146261778  0.6644290212127443  0.2868379238010569   F   F   F
  0.8288489947847708  0.6567354171194165  0.2873752662849975   F   F   F
  0.6676250000000010  0.5842620000000025  0.0951990000000009   F   F   F
  0.6670276625816046  0.5894628457033457  0.3857461495295186   F   F   F
  0.0792846751677046  0.9113660087887843  0.2844468927148570   F   F   F
  0.3302078202110789  0.9104840981473378  0.2867508755192953   F   F   F
  0.5781893766609318  0.9122803034278314  0.2846977374296833   F   F   F
  0.8315457908241264  0.9141901925553578  0.2882640268732636   F   F   F
  0.6684139999999985  0.8335110000000014  0.0965980000000002   F   F   F
  0.6576701097559409  0.8302685852659923  0.3831363443308581   F   F   F
  0.0155019908606854  0.0023843547480768  0.4341179628427342   F   F   F
  0.5021276166502860  0.4973389258573708  0.4373416855223057   F   F   F
  0.9988458930278289  0.5020112216548770  0.4372684851374868   F   F   F
  0.4779960981024238  0.9964115778090336  0.4358041512151774   F   F   F
  0.7462883891480758  0.9938990892128698  0.4371885985839531   T   T   T
 
  0.00000000E+00  0.00000000E+00  0.00000000E+00
  0.00000000E+00  0.00000000E+00  0.00000000E+00
  0.00000000E+00  0.00000000E+00  0.00000000E+00
  0.00000000E+00  0.00000000E+00  0.00000000E+00
  0.00000000E+00  0.00000000E+00  0.00000000E+00
  0.00000000E+00  0.00000000E+00  0.00000000E+00
  0.00000000E+00  0.00000000E+00  0.00000000E+00
  0.00000000E+00  0.00000000E+00  0.00000000E+00
  0.00000000E+00  0.00000000E+00  0.00000000E+00
  0.00000000E+00  0.00000000E+00  0.00000000E+00
  0.00000000E+00  0.00000000E+00  0.00000000E+00
  0.00000000E+00  0.00000000E+00  0.00000000E+00
  0.00000000E+00  0.00000000E+00  0.00000000E+00
  0.00000000E+00  0.00000000E+00  0.00000000E+00
  0.00000000E+00  0.00000000E+00  0.00000000E+00
  0.00000000E+00  0.00000000E+00  0.00000000E+00
  0.00000000E+00  0.00000000E+00  0.00000000E+00
  0.00000000E+00  0.00000000E+00  0.00000000E+00
  0.00000000E+00  0.00000000E+00  0.00000000E+00
  0.00000000E+00  0.00000000E+00  0.00000000E+00
  0.00000000E+00  0.00000000E+00  0.00000000E+00
  0.00000000E+00  0.00000000E+00  0.00000000E+00
  0.00000000E+00  0.00000000E+00  0.00000000E+00
  0.00000000E+00  0.00000000E+00  0.00000000E+00
  0.00000000E+00  0.00000000E+00  0.00000000E+00
  0.00000000E+00  0.00000000E+00  0.00000000E+00
  0.00000000E+00  0.00000000E+00  0.00000000E+00
  0.00000000E+00  0.00000000E+00  0.00000000E+00
  0.00000000E+00  0.00000000E+00  0.00000000E+00
  0.00000000E+00  0.00000000E+00  0.00000000E+00
  0.00000000E+00  0.00000000E+00  0.00000000E+00
  0.00000000E+00  0.00000000E+00  0.00000000E+00
  0.00000000E+00  0.00000000E+00  0.00000000E+00
  0.00000000E+00  0.00000000E+00  0.00000000E+00
  0.00000000E+00  0.00000000E+00  0.00000000E+00
  0.00000000E+00  0.00000000E+00  0.00000000E+00
  0.00000000E+00  0.00000000E+00  0.00000000E+00
  0.00000000E+00  0.00000000E+00  0.00000000E+00
  0.00000000E+00  0.00000000E+00  0.00000000E+00
  0.00000000E+00  0.00000000E+00  0.00000000E+00
  0.00000000E+00  0.00000000E+00  0.00000000E+00
  0.00000000E+00  0.00000000E+00  0.00000000E+00
  0.00000000E+00  0.00000000E+00  0.00000000E+00
  0.00000000E+00  0.00000000E+00  0.00000000E+00
  0.00000000E+00  0.00000000E+00  0.00000000E+00
  0.00000000E+00  0.00000000E+00  0.00000000E+00
  0.00000000E+00  0.00000000E+00  0.00000000E+00
  0.00000000E+00  0.00000000E+00  0.00000000E+00
  0.00000000E+00  0.00000000E+00  0.00000000E+00
  0.00000000E+00  0.00000000E+00  0.00000000E+00
  0.00000000E+00  0.00000000E+00  0.00000000E+00
  0.00000000E+00  0.00000000E+00  0.00000000E+00
  0.00000000E+00  0.00000000E+00  0.00000000E+00
  0.00000000E+00  0.00000000E+00  0.00000000E+00
  0.00000000E+00  0.00000000E+00  0.00000000E+00
  0.00000000E+00  0.00000000E+00  0.00000000E+00
  0.00000000E+00  0.00000000E+00  0.00000000E+00
  0.00000000E+00  0.00000000E+00  0.00000000E+00
  0.00000000E+00  0.00000000E+00  0.00000000E+00
  0.00000000E+00  0.00000000E+00  0.00000000E+00
  0.00000000E+00  0.00000000E+00  0.00000000E+00
  0.00000000E+00  0.00000000E+00  0.00000000E+00
  0.00000000E+00  0.00000000E+00  0.00000000E+00
  0.00000000E+00  0.00000000E+00  0.00000000E+00
  0.00000000E+00  0.00000000E+00  0.00000000E+00
  0.00000000E+00  0.00000000E+00  0.00000000E+00
  0.00000000E+00  0.00000000E+00  0.00000000E+00
  0.00000000E+00  0.00000000E+00  0.00000000E+00
  0.00000000E+00  0.00000000E+00  0.00000000E+00
