POSCAR                                  
   3.57100000000000     
     2.0000000000000000    0.0000000000000000    0.0000000000000000
     0.0000000000000000    2.0000000000000000    0.0000000000000000
     0.0000000000000000    0.0000000000000000    2.0000000000000000
   Fe   Ni
    16    16
Direct
  0.9999978581720785 -0.0017880391173623  0.5000016130956504
  0.0034732607915369  0.2524886521979048  0.7500000477470812
  0.0000010142696767 -0.0017860582322571 -0.0000002788934529
  0.9965245220114843  0.2524879849842980  0.2500010124957322
 -0.0022444606124961  0.7437668384993532  0.7500028369515788
  0.2539696519778417 -0.0008122288746211  0.2499965179948077
  0.2540635031742577  0.2553875306623348  0.5005949173554102
  0.2573744126103354  0.5063944806992291  0.7500041239105509
  0.5000077037825175 -0.0065381494239352  0.5000042592974930
  0.7460333622680531 -0.0008153943726960  0.7500047865774292
  0.0022445010852405  0.7437693003791538  0.2499968732279554
  0.2540580157984689  0.2553871870102338  0.9994064257388884
  0.4999963528059165 -0.0065367830138124 -0.0000053525756126
  0.7459372697733290  0.2553885637804775  0.4994067030186982
  0.7459414893724055  0.2553866314318938  0.0005926417457045
  0.7426255670979041  0.5063919674926929  0.2499963280899063
  0.2541370423082978 -0.0052737913210970  0.7500006422270752
 -0.0000015678161867  0.5012128711481715  0.5000000391327672
  0.4987891729162041  0.2520142564011981  0.7500031824150173
 -0.0000001738370789  0.5012146760150396 -0.0000006713352511
  0.2515509985555463  0.4991038334952408  0.2499991411320929
  0.2509950646729799  0.7487876167125462  0.5013359383305531
  0.5012111264963214  0.2520129467933691  0.2499967771934840
  0.5000003022863075  0.5020431045770363  0.4999998314762550
  0.5036636903678432  0.7490382495573401  0.7500031903334360
  0.7458613482395196 -0.0052739840759522  0.2499976495130511
  0.7484485140831700  0.4991065861542388  0.7500021073417412
  0.2509944920380878  0.7487865137366478 -0.0013366562779008
  0.5000000637134422  0.5020417314803370  0.9999998366038619
  0.4963354037973866  0.7490400737761825  0.2499958055856142
  0.7490052676568956  0.7487857530274898  0.4986628632641216
  0.7490052301427420  0.7487870784193302  0.0013368672862677
 
  0.00000000E+00  0.00000000E+00  0.00000000E+00
  0.00000000E+00  0.00000000E+00  0.00000000E+00
  0.00000000E+00  0.00000000E+00  0.00000000E+00
  0.00000000E+00  0.00000000E+00  0.00000000E+00
  0.00000000E+00  0.00000000E+00  0.00000000E+00
  0.00000000E+00  0.00000000E+00  0.00000000E+00
  0.00000000E+00  0.00000000E+00  0.00000000E+00
  0.00000000E+00  0.00000000E+00  0.00000000E+00
  0.00000000E+00  0.00000000E+00  0.00000000E+00
  0.00000000E+00  0.00000000E+00  0.00000000E+00
  0.00000000E+00  0.00000000E+00  0.00000000E+00
  0.00000000E+00  0.00000000E+00  0.00000000E+00
  0.00000000E+00  0.00000000E+00  0.00000000E+00
  0.00000000E+00  0.00000000E+00  0.00000000E+00
  0.00000000E+00  0.00000000E+00  0.00000000E+00
  0.00000000E+00  0.00000000E+00  0.00000000E+00
  0.00000000E+00  0.00000000E+00  0.00000000E+00
  0.00000000E+00  0.00000000E+00  0.00000000E+00
  0.00000000E+00  0.00000000E+00  0.00000000E+00
  0.00000000E+00  0.00000000E+00  0.00000000E+00
  0.00000000E+00  0.00000000E+00  0.00000000E+00
  0.00000000E+00  0.00000000E+00  0.00000000E+00
  0.00000000E+00  0.00000000E+00  0.00000000E+00
  0.00000000E+00  0.00000000E+00  0.00000000E+00
  0.00000000E+00  0.00000000E+00  0.00000000E+00
  0.00000000E+00  0.00000000E+00  0.00000000E+00
  0.00000000E+00  0.00000000E+00  0.00000000E+00
  0.00000000E+00  0.00000000E+00  0.00000000E+00
  0.00000000E+00  0.00000000E+00  0.00000000E+00
  0.00000000E+00  0.00000000E+00  0.00000000E+00
  0.00000000E+00  0.00000000E+00  0.00000000E+00
  0.00000000E+00  0.00000000E+00  0.00000000E+00
