POSCAR                                  
   3.57100000000000     
     2.0000000000000000    0.0000000000000000    0.0000000000000000
     0.0000000000000000    2.0000000000000000    0.0000000000000000
     0.0000000000000000    0.0000000000000000    2.0000000000000000
   Fe   Ni
    16    16
Direct
  0.9999799445764168  0.0071471944603729  0.4999920790531220
  0.0015213339858917  0.2432915037934649  0.7499990113923403
  0.0000187205010818  0.0071126716177972  0.0000265157774635
  0.9984814138231428  0.2432832301610546  0.2500114073378228
  0.0000951547229278  0.7553316423707770  0.7500132117402458
  0.2445504130900247  0.0073045127884015  0.2499714242880557
  0.2450354611848482  0.2427373494565757  0.5014541624128128
  0.2424197572146127  0.4942858009152360  0.7499976372949106
  0.5000158121951515  0.0083217618945568  0.5000118459488050
  0.7554537445902767  0.0072982653783384  0.7499696957615356
  0.9999163688983401  0.7553561031460063  0.2499907195110822
  0.2450195775419886  0.2427367524124051  0.9985397338467550
  0.4999806982626325  0.0083164788454013  0.0000157368860698
  0.7549689058423041  0.2427730045872778  0.4985157403359466
  0.7549789473646129  0.2427329872208972  0.0014724412348812
  0.7575843815284387  0.4942525736029992  0.2500257138628825
  0.2465058885931128  0.0026640154537887  0.7499992672794704
  0.0000041318274171  0.4964650964816784  0.4999991401376462
  0.4995476970562649  0.2472134442020391  0.7500018707821994
  0.9999979985553082  0.4964779253408409  0.9999950159122335
  0.2457118964948748  0.4962026720268113  0.2500088571700871
  0.2461101194673176  0.7527477532108406  0.5000783815703542
  0.5004434429265388  0.2472177908001427  0.2499990768668567
  0.5000065715310456  0.4965754619494618  0.4999930443920846
  0.4995304604196207  0.7542257580098308  0.7500045463034013
  0.7534803636805805  0.0026519249411834  0.2500012276359556
  0.7542831277489555  0.4962094324940480  0.7499946220751994
  0.2461207634595013  0.7527501431827588  0.9999243372469309
  0.4999902729184313  0.4965768487920812  0.9999971449738467
  0.5004720607295639  0.7542342468039109  0.2499967703621238
  0.7538924512785456  0.7527487797778534  0.4999214425000460
  0.7538821179902584  0.7527568738811752  0.0000781781068397
 
  0.00000000E+00  0.00000000E+00  0.00000000E+00
  0.00000000E+00  0.00000000E+00  0.00000000E+00
  0.00000000E+00  0.00000000E+00  0.00000000E+00
  0.00000000E+00  0.00000000E+00  0.00000000E+00
  0.00000000E+00  0.00000000E+00  0.00000000E+00
  0.00000000E+00  0.00000000E+00  0.00000000E+00
  0.00000000E+00  0.00000000E+00  0.00000000E+00
  0.00000000E+00  0.00000000E+00  0.00000000E+00
  0.00000000E+00  0.00000000E+00  0.00000000E+00
  0.00000000E+00  0.00000000E+00  0.00000000E+00
  0.00000000E+00  0.00000000E+00  0.00000000E+00
  0.00000000E+00  0.00000000E+00  0.00000000E+00
  0.00000000E+00  0.00000000E+00  0.00000000E+00
  0.00000000E+00  0.00000000E+00  0.00000000E+00
  0.00000000E+00  0.00000000E+00  0.00000000E+00
  0.00000000E+00  0.00000000E+00  0.00000000E+00
  0.00000000E+00  0.00000000E+00  0.00000000E+00
  0.00000000E+00  0.00000000E+00  0.00000000E+00
  0.00000000E+00  0.00000000E+00  0.00000000E+00
  0.00000000E+00  0.00000000E+00  0.00000000E+00
  0.00000000E+00  0.00000000E+00  0.00000000E+00
  0.00000000E+00  0.00000000E+00  0.00000000E+00
  0.00000000E+00  0.00000000E+00  0.00000000E+00
  0.00000000E+00  0.00000000E+00  0.00000000E+00
  0.00000000E+00  0.00000000E+00  0.00000000E+00
  0.00000000E+00  0.00000000E+00  0.00000000E+00
  0.00000000E+00  0.00000000E+00  0.00000000E+00
  0.00000000E+00  0.00000000E+00  0.00000000E+00
  0.00000000E+00  0.00000000E+00  0.00000000E+00
  0.00000000E+00  0.00000000E+00  0.00000000E+00
  0.00000000E+00  0.00000000E+00  0.00000000E+00
  0.00000000E+00  0.00000000E+00  0.00000000E+00
