POSCAR                                  
   1.00000000000000     
    10.1003100000000003    0.0000000000000000    0.0000000000000000
    -5.0501550000000002    8.7471250499999993    0.0000000000000000
     0.0000000000000000    0.0000000000000000   21.2537989799999991
   Ni   Fe
    33    31
Selective dynamics
Direct
  0.9990430000000003  0.0006419999999991  0.1905230300000014   F   F   F
  0.2484910000000013  0.9986279999999965  0.1920546300000012   F   F   F
  0.4990250000000032  0.0019270000000020  0.1918055300000034   F   F   F
  0.9981390000000019  0.2506739999999965  0.1919423000000009   F   F   F
  0.2492149999999995  0.2488620000000026  0.1911859599999985   F   F   F
  0.3280005193649361  0.1647596551246744  0.2848918598812025   T   T   T
  0.7489350000000030  0.2527809999999988  0.1931747499999972   F   F   F
  0.4183749999999975  0.0839399999999983  0.0941179900000009   F   F   F
  0.4182117181472528  0.0853346725583207  0.3777572597961235   T   T   T
  0.8317677111188093  0.1678049949474295  0.2849093764494057   T   T   T
  0.6679699999999968  0.0847229999999968  0.0956932499999965   F   F   F
  0.6667479814429343  0.0814219288335737  0.3770101796707788   T   T   T
  0.9990859999999984  0.4991079999999997  0.1930400099999972   F   F   F
  0.7481689999999972  0.4987110000000001  0.1920458999999965   F   F   F
  0.5794511558715701  0.4172435891950442  0.2831169764583271   T   T   T
  0.4196099999999987  0.3333709999999996  0.0941398200000023   F   F   F
  0.4151326113792400  0.3338670598494183  0.3769030757777634   T   T   T
  0.8335185407261786  0.4190021755110858  0.2856392788174889   T   T   T
  0.9185590000000019  0.3350160000000031  0.0956874299999981   F   F   F
  0.9210062176158070  0.3335962094191731  0.3780586168111178   T   T   T
  0.9976580000000013  0.7489690000000024  0.1925604199999995   F   F   F
  0.0835472130707764  0.6700479207010743  0.2848429973586948   T   T   T
  0.7534649999999985  0.7517280000000000  0.1916285900000005   F   F   F
  0.4173729999999978  0.5835239999999970  0.0962342500000020   F   F   F
  0.4172241946911977  0.5823814101462591  0.3760486207932698   T   T   T
  0.9155080000000027  0.5846190000000036  0.0954287200000010   F   F   F
  0.9151399916861463  0.5812078498116571  0.3773136683678827   T   T   T
  0.1668289999999999  0.8349079999999987  0.0945667399999977   F   F   F
  0.1701342069280184  0.8367489133865822  0.3760084783600154   T   T   T
  0.4171529999999990  0.8333879999999994  0.0967927000000017   F   F   F
  0.4180653016143311  0.8306716853336690  0.3766836956807851   T   T   T
  0.9198510000000013  0.8326369999999983  0.0953984499999976   F   F   F
  0.9153508166232435  0.8355857044119991  0.3789967742396358   T   T   T
  0.7491819999999976  0.0045379999999966  0.1931130500000009   F   F   F
  0.0792028783704726  0.1638147035634262  0.2865775512395265   T   T   T
  0.4931899999999985  0.2454400000000021  0.1916780600000010   F   F   F
  0.1713960000000014  0.0833930000000009  0.0953588799999991   F   F   F
  0.1542056370904728  0.0821158866403085  0.3737567724497044   T   T   T
  0.5747712749736312  0.1666464661088103  0.2848648526138908   T   T   T
  0.9169309999999982  0.0858149999999966  0.0941008200000013   F   F   F
  0.9207946834211839  0.0800678219099342  0.3731615224293043   T   T   T
  0.2459640000000007  0.4966930000000005  0.1936994400000032   F   F   F
  0.0946844963668582  0.4199919105580517  0.2853716736681502   T   T   T
  0.5029729999999972  0.4996209999999977  0.1909633300000024   F   F   F
  0.3311737312665732  0.4242308334256046  0.2837439661079810   T   T   T
  0.1708140000000000  0.3372420000000034  0.0955052600000030   F   F   F
  0.1677416164268296  0.3331902095395682  0.3713274609955239   T   T   T
  0.6726469999999978  0.3359809999999968  0.0960034699999994   F   F   F
  0.6630707668154523  0.3299940542012906  0.3717901041663677   T   T   T
  0.2449050000000028  0.7526999999999973  0.1934363700000006   F   F   F
  0.4984030000000033  0.7498829999999970  0.1926069800000008   F   F   F
  0.3308916220458973  0.6690140745009180  0.2827061836738088   T   T   T
  0.1647060000000025  0.5862709999999964  0.0973307900000009   F   F   F
  0.1672661660598577  0.5754119886139026  0.3724172794566482   T   T   T
  0.5780485222429863  0.6645474319971165  0.2820122969428287   T   T   T
  0.8305024943192321  0.6749155137900865  0.2874410412307179   T   T   T
  0.6676250000000010  0.5842620000000025  0.0951988200000002   F   F   F
  0.6713441661492746  0.5899474227437185  0.3709633303136529   T   T   T
  0.0775302760283552  0.9203940753332385  0.2867093330817730   T   T   T
  0.3391132123936273  0.9177623921228771  0.2843273155895874   T   T   T
  0.5797969477808742  0.9110506547642075  0.2822261635498254   T   T   T
  0.8341756728034464  0.9203667291466759  0.2849361232222379   T   T   T
  0.6684139999999985  0.8335110000000014  0.0965983099999974   F   F   F
  0.6693287813240754  0.8338339409308092  0.3706512136771109   T   T   T
 
  0.00000000E+00  0.00000000E+00  0.00000000E+00
  0.00000000E+00  0.00000000E+00  0.00000000E+00
  0.00000000E+00  0.00000000E+00  0.00000000E+00
  0.00000000E+00  0.00000000E+00  0.00000000E+00
  0.00000000E+00  0.00000000E+00  0.00000000E+00
  0.00000000E+00  0.00000000E+00  0.00000000E+00
  0.00000000E+00  0.00000000E+00  0.00000000E+00
  0.00000000E+00  0.00000000E+00  0.00000000E+00
  0.00000000E+00  0.00000000E+00  0.00000000E+00
  0.00000000E+00  0.00000000E+00  0.00000000E+00
  0.00000000E+00  0.00000000E+00  0.00000000E+00
  0.00000000E+00  0.00000000E+00  0.00000000E+00
  0.00000000E+00  0.00000000E+00  0.00000000E+00
  0.00000000E+00  0.00000000E+00  0.00000000E+00
  0.00000000E+00  0.00000000E+00  0.00000000E+00
  0.00000000E+00  0.00000000E+00  0.00000000E+00
  0.00000000E+00  0.00000000E+00  0.00000000E+00
  0.00000000E+00  0.00000000E+00  0.00000000E+00
  0.00000000E+00  0.00000000E+00  0.00000000E+00
  0.00000000E+00  0.00000000E+00  0.00000000E+00
  0.00000000E+00  0.00000000E+00  0.00000000E+00
  0.00000000E+00  0.00000000E+00  0.00000000E+00
  0.00000000E+00  0.00000000E+00  0.00000000E+00
  0.00000000E+00  0.00000000E+00  0.00000000E+00
  0.00000000E+00  0.00000000E+00  0.00000000E+00
  0.00000000E+00  0.00000000E+00  0.00000000E+00
  0.00000000E+00  0.00000000E+00  0.00000000E+00
  0.00000000E+00  0.00000000E+00  0.00000000E+00
  0.00000000E+00  0.00000000E+00  0.00000000E+00
  0.00000000E+00  0.00000000E+00  0.00000000E+00
  0.00000000E+00  0.00000000E+00  0.00000000E+00
  0.00000000E+00  0.00000000E+00  0.00000000E+00
  0.00000000E+00  0.00000000E+00  0.00000000E+00
  0.00000000E+00  0.00000000E+00  0.00000000E+00
  0.00000000E+00  0.00000000E+00  0.00000000E+00
  0.00000000E+00  0.00000000E+00  0.00000000E+00
  0.00000000E+00  0.00000000E+00  0.00000000E+00
  0.00000000E+00  0.00000000E+00  0.00000000E+00
  0.00000000E+00  0.00000000E+00  0.00000000E+00
  0.00000000E+00  0.00000000E+00  0.00000000E+00
  0.00000000E+00  0.00000000E+00  0.00000000E+00
  0.00000000E+00  0.00000000E+00  0.00000000E+00
  0.00000000E+00  0.00000000E+00  0.00000000E+00
  0.00000000E+00  0.00000000E+00  0.00000000E+00
  0.00000000E+00  0.00000000E+00  0.00000000E+00
  0.00000000E+00  0.00000000E+00  0.00000000E+00
  0.00000000E+00  0.00000000E+00  0.00000000E+00
  0.00000000E+00  0.00000000E+00  0.00000000E+00
  0.00000000E+00  0.00000000E+00  0.00000000E+00
  0.00000000E+00  0.00000000E+00  0.00000000E+00
  0.00000000E+00  0.00000000E+00  0.00000000E+00
  0.00000000E+00  0.00000000E+00  0.00000000E+00
  0.00000000E+00  0.00000000E+00  0.00000000E+00
  0.00000000E+00  0.00000000E+00  0.00000000E+00
  0.00000000E+00  0.00000000E+00  0.00000000E+00
  0.00000000E+00  0.00000000E+00  0.00000000E+00
  0.00000000E+00  0.00000000E+00  0.00000000E+00
  0.00000000E+00  0.00000000E+00  0.00000000E+00
  0.00000000E+00  0.00000000E+00  0.00000000E+00
  0.00000000E+00  0.00000000E+00  0.00000000E+00
  0.00000000E+00  0.00000000E+00  0.00000000E+00
  0.00000000E+00  0.00000000E+00  0.00000000E+00
  0.00000000E+00  0.00000000E+00  0.00000000E+00
  0.00000000E+00  0.00000000E+00  0.00000000E+00
