POSCAR                                  
   3.57500000000000     
     0.5000000000000000    0.5000000000000000   -1.0000000000000000
     0.0000000000000000   -1.5000000000000002   -0.5000000000000000
    -2.0000000000000000    0.5000000000000000   -0.5000000000000000
   Ni   Fe
     4    12
Direct
  0.2478424576476812  0.6918398621100543  0.8161906050550755
  0.0014183004598908  0.2496919630624517  0.7512388287218550
  0.2485720320824434  0.9377840603322636  0.5612530015692260
  0.0021282641917153  0.4956649466000539  0.4963069111739105
  0.9949221856643885  0.7480428638036652  0.2366385425571513
  0.7388226871859774  0.5587119988075041  0.9426293617677080
  0.5120377160014489  0.1290876903780495  0.8802353464209492
  0.7376138649742221  0.8089170684350877  0.6914353699804323
  0.5124145845884823  0.3785636437883222  0.6210908272479521
  0.5111457774322882  0.6287996402295134  0.3698659351398269
  0.2544493946081430  0.1853446396548185  0.3094106171806011
  0.5065621889611448  0.8760083006426340  0.1319801123574947
  0.2550584407824854  0.4394610392392989  0.0758809024792891
  0.9955376631832552  0.0021402461303315  0.0030687253989312
  0.7379993274152027  0.0584312994065313  0.4322747507764992
  0.7434751148212307  0.3115107373794202  0.1805001621730908
 
  0.00000000E+00  0.00000000E+00  0.00000000E+00
  0.00000000E+00  0.00000000E+00  0.00000000E+00
  0.00000000E+00  0.00000000E+00  0.00000000E+00
  0.00000000E+00  0.00000000E+00  0.00000000E+00
  0.00000000E+00  0.00000000E+00  0.00000000E+00
  0.00000000E+00  0.00000000E+00  0.00000000E+00
  0.00000000E+00  0.00000000E+00  0.00000000E+00
  0.00000000E+00  0.00000000E+00  0.00000000E+00
  0.00000000E+00  0.00000000E+00  0.00000000E+00
  0.00000000E+00  0.00000000E+00  0.00000000E+00
  0.00000000E+00  0.00000000E+00  0.00000000E+00
  0.00000000E+00  0.00000000E+00  0.00000000E+00
  0.00000000E+00  0.00000000E+00  0.00000000E+00
  0.00000000E+00  0.00000000E+00  0.00000000E+00
  0.00000000E+00  0.00000000E+00  0.00000000E+00
  0.00000000E+00  0.00000000E+00  0.00000000E+00
