POSCAR                                  
   1.00000000000000     
    10.1116299999999999    0.0000000000000000    0.0000000000000000
    -5.0558149999999999    8.7569284500000002    0.0000000000000000
     0.0000000000000000    0.0000000000000000   21.2664283000000012
   Fe   Ni
    48    16
Selective dynamics
Direct
  0.0019470000000013  0.9992000000000019  0.0968293700000018   F   F   F
  0.0010732568617016  0.9989668861566514  0.3912240864125991   T   T   T
  0.4988060000000019  0.9964760000000012  0.0961454199999991   F   F   F
  0.5019985418068131  0.0044205911025870  0.3899348393149253   T   T   T
  0.7431600000000032  0.9964590000000015  0.0944307400000000   F   F   F
  0.7527709544794163  0.9995886863149650  0.3862052030788945   T   T   T
  0.2491360000000000  0.2532259999999980  0.0968104399999987   F   F   F
  0.2552675338275847  0.2465232036213933  0.3902503821766530   T   T   T
  0.0887320000000003  0.1614939999999976  0.1905915199999981   F   F   F
  0.3296259999999975  0.1660979999999981  0.1950626799999995   F   F   F
  0.1623493736478920  0.0860489652550953  0.2949534415697599   T   T   T
  0.5833299999999966  0.1655030000000011  0.1944369599999973   F   F   F
  0.4134237181872891  0.0841016039831572  0.2936832356576602   T   T   T
  0.8265150000000006  0.1665100000000024  0.1932626799999966   F   F   F
  0.6607920240273941  0.0799494286744107  0.2915564781079283   T   T   T
  0.0032080000000008  0.5109089999999981  0.0945134299999992   F   F   F
  0.0004580152499827  0.4945057731160318  0.3871728248396451   T   T   T
  0.2558689999999970  0.5057770000000019  0.0973464799999988   F   F   F
  0.2527716346313795  0.4952534098328698  0.3852048179607408   T   T   T
  0.4996020000000030  0.5030489999999972  0.0975409799999980   F   F   F
  0.5018705294607884  0.5008687814543507  0.3926434150678162   T   T   T
  0.3385990000000021  0.4158370000000033  0.1893933699999977   F   F   F
  0.7567909999999998  0.5080430000000007  0.0963093499999985   F   F   F
  0.7537540211674454  0.4981725954616607  0.3941024023853856   T   T   T
  0.5863360000000029  0.4222940000000008  0.1942357599999980   F   F   F
  0.4151860668952594  0.3406510275964507  0.2937614078710666   T   T   T
  0.8267710000000008  0.4167619999999985  0.1919949400000007   F   F   F
  0.6674540295598348  0.3333162040066213  0.2939613000898547   T   T   T
  0.9918059999999969  0.7470280000000002  0.0957130399999997   F   F   F
  0.9988788142619853  0.7463826396964848  0.3931776801868452   T   T   T
  0.2510460000000023  0.7456389999999971  0.0970363899999995   F   F   F
  0.2505705313363009  0.7459743675868609  0.3879446824529751   T   T   T
  0.0860460000000032  0.6708690000000033  0.1922022500000011   F   F   F
  0.5015369999999990  0.7490570000000005  0.0975287500000022   F   F   F
  0.4982546386179578  0.7524423677773910  0.3839469017593444   T   T   T
  0.3300589999999985  0.6613559999999978  0.1901862100000002   F   F   F
  0.1651676499504973  0.5767713194501880  0.2879788838277051   T   T   T
  0.7477749999999972  0.7486310000000032  0.0940449400000034   F   F   F
  0.7532867200114879  0.7523429943395925  0.3936072665014265   T   T   T
  0.5800819999999973  0.6609630000000024  0.1915273299999996   F   F   F
  0.8321370000000030  0.6619949999999974  0.1930352799999966   F   F   F
  0.6650027385220127  0.5878823996596694  0.2955496935163566   T   T   T
  0.9160593582793766  0.5828939974332172  0.2928379093708102   T   T   T
  0.0860360000000000  0.9163550000000029  0.1937119500000009   F   F   F
  0.3274299999999997  0.9193220000000011  0.1929365800000014   F   F   F
  0.1622715745358505  0.8318141362946250  0.2932513526410929   T   T   T
  0.6620325152176392  0.8342004531270248  0.2869341538363912   T   T   T
  0.9125130304448348  0.8376306066174308  0.2923422081979936   T   T   T
  0.2491649999999979  0.9981310000000008  0.0955983200000006   F   F   F
  0.2529952113386784  0.9984808067084501  0.3892970360021906   T   T   T
  0.0012970000000010  0.2497419999999977  0.0965859499999979   F   F   F
  0.0041608287880948  0.2485007622227968  0.3814850034363886   T   T   T
  0.4993309999999980  0.2516269999999992  0.0953726600000024   F   F   F
  0.5050378035881025  0.2523746100013895  0.3882397588371518   T   T   T
  0.7494420000000019  0.2507129999999975  0.0957307999999983   F   F   F
  0.7535233296036594  0.2486041080564192  0.3859388550747340   T   T   T
  0.9162987595868088  0.0845453837184706  0.2885676621028352   T   T   T
  0.0826080000000005  0.4170799999999986  0.1922532099999970   F   F   F
  0.1665638496823689  0.3313968383283097  0.2868931588627035   T   T   T
  0.9154009313131581  0.3318241912377999  0.2887806505753758   T   T   T
  0.4142010850452778  0.5827859602034451  0.2890947825606887   T   T   T
  0.5819070000000011  0.9152690000000021  0.1924127699999971   F   F   F
  0.4112347876199181  0.8294055622257375  0.2875934108466183   T   T   T
  0.8339989999999986  0.9145710000000022  0.1924040299999987   F   F   F
 
  0.00000000E+00  0.00000000E+00  0.00000000E+00
  0.00000000E+00  0.00000000E+00  0.00000000E+00
  0.00000000E+00  0.00000000E+00  0.00000000E+00
  0.00000000E+00  0.00000000E+00  0.00000000E+00
  0.00000000E+00  0.00000000E+00  0.00000000E+00
  0.00000000E+00  0.00000000E+00  0.00000000E+00
  0.00000000E+00  0.00000000E+00  0.00000000E+00
  0.00000000E+00  0.00000000E+00  0.00000000E+00
  0.00000000E+00  0.00000000E+00  0.00000000E+00
  0.00000000E+00  0.00000000E+00  0.00000000E+00
  0.00000000E+00  0.00000000E+00  0.00000000E+00
  0.00000000E+00  0.00000000E+00  0.00000000E+00
  0.00000000E+00  0.00000000E+00  0.00000000E+00
  0.00000000E+00  0.00000000E+00  0.00000000E+00
  0.00000000E+00  0.00000000E+00  0.00000000E+00
  0.00000000E+00  0.00000000E+00  0.00000000E+00
  0.00000000E+00  0.00000000E+00  0.00000000E+00
  0.00000000E+00  0.00000000E+00  0.00000000E+00
  0.00000000E+00  0.00000000E+00  0.00000000E+00
  0.00000000E+00  0.00000000E+00  0.00000000E+00
  0.00000000E+00  0.00000000E+00  0.00000000E+00
  0.00000000E+00  0.00000000E+00  0.00000000E+00
  0.00000000E+00  0.00000000E+00  0.00000000E+00
  0.00000000E+00  0.00000000E+00  0.00000000E+00
  0.00000000E+00  0.00000000E+00  0.00000000E+00
  0.00000000E+00  0.00000000E+00  0.00000000E+00
  0.00000000E+00  0.00000000E+00  0.00000000E+00
  0.00000000E+00  0.00000000E+00  0.00000000E+00
  0.00000000E+00  0.00000000E+00  0.00000000E+00
  0.00000000E+00  0.00000000E+00  0.00000000E+00
  0.00000000E+00  0.00000000E+00  0.00000000E+00
  0.00000000E+00  0.00000000E+00  0.00000000E+00
  0.00000000E+00  0.00000000E+00  0.00000000E+00
  0.00000000E+00  0.00000000E+00  0.00000000E+00
  0.00000000E+00  0.00000000E+00  0.00000000E+00
  0.00000000E+00  0.00000000E+00  0.00000000E+00
  0.00000000E+00  0.00000000E+00  0.00000000E+00
  0.00000000E+00  0.00000000E+00  0.00000000E+00
  0.00000000E+00  0.00000000E+00  0.00000000E+00
  0.00000000E+00  0.00000000E+00  0.00000000E+00
  0.00000000E+00  0.00000000E+00  0.00000000E+00
  0.00000000E+00  0.00000000E+00  0.00000000E+00
  0.00000000E+00  0.00000000E+00  0.00000000E+00
  0.00000000E+00  0.00000000E+00  0.00000000E+00
  0.00000000E+00  0.00000000E+00  0.00000000E+00
  0.00000000E+00  0.00000000E+00  0.00000000E+00
  0.00000000E+00  0.00000000E+00  0.00000000E+00
  0.00000000E+00  0.00000000E+00  0.00000000E+00
  0.00000000E+00  0.00000000E+00  0.00000000E+00
  0.00000000E+00  0.00000000E+00  0.00000000E+00
  0.00000000E+00  0.00000000E+00  0.00000000E+00
  0.00000000E+00  0.00000000E+00  0.00000000E+00
  0.00000000E+00  0.00000000E+00  0.00000000E+00
  0.00000000E+00  0.00000000E+00  0.00000000E+00
  0.00000000E+00  0.00000000E+00  0.00000000E+00
  0.00000000E+00  0.00000000E+00  0.00000000E+00
  0.00000000E+00  0.00000000E+00  0.00000000E+00
  0.00000000E+00  0.00000000E+00  0.00000000E+00
  0.00000000E+00  0.00000000E+00  0.00000000E+00
  0.00000000E+00  0.00000000E+00  0.00000000E+00
  0.00000000E+00  0.00000000E+00  0.00000000E+00
  0.00000000E+00  0.00000000E+00  0.00000000E+00
  0.00000000E+00  0.00000000E+00  0.00000000E+00
  0.00000000E+00  0.00000000E+00  0.00000000E+00
