POSCAR                                  
   3.57500000000000     
     1.5000000000000002   -2.0000000000000000   -0.5000000000000000
    -2.0000000000000000   -1.5000000000000002    0.5000000000000000
    -1.0000000000000000    1.0000000000000000   -4.0000000000000000
   Fe   Ni
    81    27
Direct
  0.1288143050460846  0.9806236318805972  0.2353895015776928
  0.3828526301702340  0.9495765885552387  0.1967227094361661
  0.1575622119416593  0.8296333752521150  0.0820755724388604
  0.6423529992414743  0.9152141653587051  0.1574353946595082
  0.4171349411951368  0.7997059976727456  0.0457059647027549
  0.9076720756936538  0.8764189401945330  0.1220411695981412
  0.6917739010107198  0.7690294212882165  0.0096943408030867
  0.2513584265677622  0.9668602463143117  0.4627615027106344
  0.5086930547849349  0.9267819577803209  0.4232556865647084
  0.2981389086670205  0.8214781752947005  0.3225130873900142
  0.0772336196259573  0.7047938630905506  0.2106226320383087
  0.7687817719235426  0.8855269916092254  0.3884377419763752
  0.5518909509704102  0.7786544598074272  0.2793384996345409
  0.3335387983123468  0.6704698976033185  0.1709916997996146
  0.1111006825613714  0.5570644576646089  0.0581857372375723
  0.8133360172932669  0.7412224629844744  0.2417358210669818
  0.5929321002631127  0.6343120390879520  0.1263641414753849
  0.3619805661095299  0.5145780092268168  0.0189776422057193
  0.8586812482385824  0.5920680026160525  0.0918480244592814
  0.1208006738817389  0.9724537762777814  0.7299470594705255
  0.3839202062535279  0.9466590627612916  0.6953222376110446
  0.6422148008446058  0.9127854410332645  0.6578899775207816
  0.4154019236429249  0.8035035728742486  0.5441169843196860
  0.1982258697686632  0.6897076949084635  0.4324423629321998
  0.6748382883945396  0.7597211986974912  0.5106671058180652
  0.4615494236819444  0.6520821087983180  0.3952165095817861
  0.2459245973618991  0.5319053616274871  0.2853989639704437
  0.9348370622448812  0.7213442410286035  0.4743138222351178
  0.5081077807185892  0.4976339075758389  0.2467359472274495
  0.0561731307358500  0.2823712262568918  0.0311113171593078
  0.9817976659317864  0.5706846118968869  0.3262932732940840
  0.7640021690313574  0.4615421540835953  0.2115803187779335
  0.5347506272148408  0.3517263066208827  0.0975480482146622
  0.0350140642194177  0.8457008442009410  0.8535988581830551
  0.5213784502502889  0.9262468436858882  0.9277551385548790
  0.2965636268039589  0.8093495523293868  0.8183158824580801
  0.0704347510951351  0.6980188806714054  0.7008048528437882
  0.3308098898612286  0.6725433357519250  0.6676500490108666
  0.1133915645482375  0.5510987462160415  0.5503068096036117
  0.8113184994709144  0.7467702256482696  0.7398229294379988
  0.5886176744059171  0.6316991759479791  0.6312490460180697
  0.3794023267053817  0.5216551823866382  0.5150715815666018
  0.1556405591546337  0.4024163155648495  0.4042884886861842
  0.8509697718354872  0.5884070600949656  0.5922062954080758
  0.6384148172295312  0.4808011017103624  0.4783603771753917
  0.4174444235499877  0.3680782412180861  0.3672456702911049
  0.1859784842981966  0.2517477662375356  0.2549718522658111
  0.4475332833474184  0.2205866485045505  0.2202082017952520
  0.2207305527560308  0.1064573381928469  0.1051898105418303
  0.9905789830506464  0.0016424475156285  0.9993074851188766
  0.9273354362043023  0.2925134439035659  0.2976041731406625
  0.7051500481501947  0.1870210927843416  0.1798706502200105
  0.4645359213400369  0.6494407787505878  0.9025819742239278
  0.2395132705091001  0.5317173283284404  0.7916333418859125
  0.0266656741075622  0.4201697976544168  0.6752913778304901
  0.7276047267903394  0.6197644628340839  0.8619040027698901
  0.5040598716741229  0.5067406720138479  0.7530902850077368
  0.2880660225065483  0.3924802353946575  0.6390639117934924
  0.0556124935780247  0.2721443417732559  0.5256173267770450
  0.7650352768081916  0.4639735580194255  0.7138575248751096
  0.3183248809864665  0.2436006450481187  0.4917312801689846
  0.8006368753983892  0.3091907180146762  0.5653447310823694
  0.5796163398126879  0.2068079053336263  0.4538118295522366
  0.3531753868940157  0.0953170642904411  0.3470050726702425
  0.6135532010232438  0.0593978540707312  0.3071821027922397
  0.8717940171644400  0.0196617111717856  0.2718454584372196
  0.6322272873364483  0.4840523885849208  0.9813707524118982
  0.4065899400811261  0.3641452567933143  0.8713339690844819
  0.1876105245170265  0.2494059774578758  0.7598168813790807
  0.8911582910341735  0.4431779922933430  0.9417286103046862
  0.6701528341112137  0.3364656993571842  0.8329124755493424
  0.4519512607751679  0.2245555561806185  0.7216930418784315
  0.2201965453582559  0.1096812976335428  0.6110002562603825
  0.9925398279193658  0.9986895805128526  0.4991961902127713
  0.9295189627533418  0.2918057895044868  0.7934255598633868
  0.4839497698265802  0.0803920817786192  0.5725979782714532
  0.7391319745531533  0.0349030324930766  0.5352438190895228
  0.0916278498027268  0.1271176968926255  0.8827642711019195
  0.5809290868468793  0.2039310195110957  0.9544161817562440
  0.3518304510728427  0.0859644071941830  0.8454148699805231
  0.6162307784095589  0.0559490966412639  0.8065333009139621
  0.0331548195788756  0.8531775536928592  0.3542033856194493
  0.1581559576839382  0.8319652003369669  0.5819375023182474
  0.9007134145140796  0.8694450040504336  0.6207315303287118
  0.0215856975428537  0.4247367922101404  0.1778620226230814
  0.7225281207544043  0.6077762820313310  0.3605637270440454
  0.2785701110283583  0.3875051506486429  0.1389677366239397
  0.7996122514626265  0.3167642989080690  0.0628330372785015
  0.2544816267039423  0.9589553626374538  0.9624718699116457
  0.7794405168584575  0.8922905715810572  0.8877558126289671
  0.5551156746618773  0.7829322634729650  0.7803738554015567
  0.8913304929642152  0.4408650041760325  0.4431825124749054
  0.6748318273398013  0.3322367499191827  0.3315354703450097
  0.4771769557704602  0.0743791361358745  0.0704519694189401
  0.9604921485483899  0.1495004794521577  0.1482565381575327
  0.7404264352889811  0.0414767605366606  0.0364851262105503
  0.2001852301903426  0.6819065080982085  0.9361106670402535
  0.9435657102279578  0.7216133247662739  0.9707222874554873
  0.9842222309204161  0.5729576490584378  0.8248160667212758
  0.5476848887394894  0.3547067685826377  0.6026873394201431
  0.0906503526026228  0.1279840043889990  0.3802008463831328
  0.8334449370297108  0.1664904141553265  0.4166660898918835
  0.1466165251757943  0.4042537506603097  0.9079629233136259
  0.7073719992514285  0.1854900466931255  0.6848754626003029
  0.9606858386859898  0.1421478998674743  0.6485443282424441
  0.3137760718074745  0.2385649313147340  0.9902211636239002
  0.8353545819269286  0.1688864152600118  0.9153942513057132
  0.8699056034886326  0.0194601415493025  0.7682691494631513
 
  0.00000000E+00  0.00000000E+00  0.00000000E+00
  0.00000000E+00  0.00000000E+00  0.00000000E+00
  0.00000000E+00  0.00000000E+00  0.00000000E+00
  0.00000000E+00  0.00000000E+00  0.00000000E+00
  0.00000000E+00  0.00000000E+00  0.00000000E+00
  0.00000000E+00  0.00000000E+00  0.00000000E+00
  0.00000000E+00  0.00000000E+00  0.00000000E+00
  0.00000000E+00  0.00000000E+00  0.00000000E+00
  0.00000000E+00  0.00000000E+00  0.00000000E+00
  0.00000000E+00  0.00000000E+00  0.00000000E+00
  0.00000000E+00  0.00000000E+00  0.00000000E+00
  0.00000000E+00  0.00000000E+00  0.00000000E+00
  0.00000000E+00  0.00000000E+00  0.00000000E+00
  0.00000000E+00  0.00000000E+00  0.00000000E+00
  0.00000000E+00  0.00000000E+00  0.00000000E+00
  0.00000000E+00  0.00000000E+00  0.00000000E+00
  0.00000000E+00  0.00000000E+00  0.00000000E+00
  0.00000000E+00  0.00000000E+00  0.00000000E+00
  0.00000000E+00  0.00000000E+00  0.00000000E+00
  0.00000000E+00  0.00000000E+00  0.00000000E+00
  0.00000000E+00  0.00000000E+00  0.00000000E+00
  0.00000000E+00  0.00000000E+00  0.00000000E+00
  0.00000000E+00  0.00000000E+00  0.00000000E+00
  0.00000000E+00  0.00000000E+00  0.00000000E+00
  0.00000000E+00  0.00000000E+00  0.00000000E+00
  0.00000000E+00  0.00000000E+00  0.00000000E+00
  0.00000000E+00  0.00000000E+00  0.00000000E+00
  0.00000000E+00  0.00000000E+00  0.00000000E+00
  0.00000000E+00  0.00000000E+00  0.00000000E+00
  0.00000000E+00  0.00000000E+00  0.00000000E+00
  0.00000000E+00  0.00000000E+00  0.00000000E+00
  0.00000000E+00  0.00000000E+00  0.00000000E+00
  0.00000000E+00  0.00000000E+00  0.00000000E+00
  0.00000000E+00  0.00000000E+00  0.00000000E+00
  0.00000000E+00  0.00000000E+00  0.00000000E+00
  0.00000000E+00  0.00000000E+00  0.00000000E+00
  0.00000000E+00  0.00000000E+00  0.00000000E+00
  0.00000000E+00  0.00000000E+00  0.00000000E+00
  0.00000000E+00  0.00000000E+00  0.00000000E+00
  0.00000000E+00  0.00000000E+00  0.00000000E+00
  0.00000000E+00  0.00000000E+00  0.00000000E+00
  0.00000000E+00  0.00000000E+00  0.00000000E+00
  0.00000000E+00  0.00000000E+00  0.00000000E+00
  0.00000000E+00  0.00000000E+00  0.00000000E+00
  0.00000000E+00  0.00000000E+00  0.00000000E+00
  0.00000000E+00  0.00000000E+00  0.00000000E+00
  0.00000000E+00  0.00000000E+00  0.00000000E+00
  0.00000000E+00  0.00000000E+00  0.00000000E+00
  0.00000000E+00  0.00000000E+00  0.00000000E+00
  0.00000000E+00  0.00000000E+00  0.00000000E+00
  0.00000000E+00  0.00000000E+00  0.00000000E+00
  0.00000000E+00  0.00000000E+00  0.00000000E+00
  0.00000000E+00  0.00000000E+00  0.00000000E+00
  0.00000000E+00  0.00000000E+00  0.00000000E+00
  0.00000000E+00  0.00000000E+00  0.00000000E+00
  0.00000000E+00  0.00000000E+00  0.00000000E+00
  0.00000000E+00  0.00000000E+00  0.00000000E+00
  0.00000000E+00  0.00000000E+00  0.00000000E+00
  0.00000000E+00  0.00000000E+00  0.00000000E+00
  0.00000000E+00  0.00000000E+00  0.00000000E+00
  0.00000000E+00  0.00000000E+00  0.00000000E+00
  0.00000000E+00  0.00000000E+00  0.00000000E+00
  0.00000000E+00  0.00000000E+00  0.00000000E+00
  0.00000000E+00  0.00000000E+00  0.00000000E+00
  0.00000000E+00  0.00000000E+00  0.00000000E+00
  0.00000000E+00  0.00000000E+00  0.00000000E+00
  0.00000000E+00  0.00000000E+00  0.00000000E+00
  0.00000000E+00  0.00000000E+00  0.00000000E+00
  0.00000000E+00  0.00000000E+00  0.00000000E+00
  0.00000000E+00  0.00000000E+00  0.00000000E+00
  0.00000000E+00  0.00000000E+00  0.00000000E+00
  0.00000000E+00  0.00000000E+00  0.00000000E+00
  0.00000000E+00  0.00000000E+00  0.00000000E+00
  0.00000000E+00  0.00000000E+00  0.00000000E+00
  0.00000000E+00  0.00000000E+00  0.00000000E+00
  0.00000000E+00  0.00000000E+00  0.00000000E+00
  0.00000000E+00  0.00000000E+00  0.00000000E+00
  0.00000000E+00  0.00000000E+00  0.00000000E+00
  0.00000000E+00  0.00000000E+00  0.00000000E+00
  0.00000000E+00  0.00000000E+00  0.00000000E+00
  0.00000000E+00  0.00000000E+00  0.00000000E+00
  0.00000000E+00  0.00000000E+00  0.00000000E+00
  0.00000000E+00  0.00000000E+00  0.00000000E+00
  0.00000000E+00  0.00000000E+00  0.00000000E+00
  0.00000000E+00  0.00000000E+00  0.00000000E+00
  0.00000000E+00  0.00000000E+00  0.00000000E+00
  0.00000000E+00  0.00000000E+00  0.00000000E+00
  0.00000000E+00  0.00000000E+00  0.00000000E+00
  0.00000000E+00  0.00000000E+00  0.00000000E+00
  0.00000000E+00  0.00000000E+00  0.00000000E+00
  0.00000000E+00  0.00000000E+00  0.00000000E+00
  0.00000000E+00  0.00000000E+00  0.00000000E+00
  0.00000000E+00  0.00000000E+00  0.00000000E+00
  0.00000000E+00  0.00000000E+00  0.00000000E+00
  0.00000000E+00  0.00000000E+00  0.00000000E+00
  0.00000000E+00  0.00000000E+00  0.00000000E+00
  0.00000000E+00  0.00000000E+00  0.00000000E+00
  0.00000000E+00  0.00000000E+00  0.00000000E+00
  0.00000000E+00  0.00000000E+00  0.00000000E+00
  0.00000000E+00  0.00000000E+00  0.00000000E+00
  0.00000000E+00  0.00000000E+00  0.00000000E+00
  0.00000000E+00  0.00000000E+00  0.00000000E+00
  0.00000000E+00  0.00000000E+00  0.00000000E+00
  0.00000000E+00  0.00000000E+00  0.00000000E+00
  0.00000000E+00  0.00000000E+00  0.00000000E+00
  0.00000000E+00  0.00000000E+00  0.00000000E+00
  0.00000000E+00  0.00000000E+00  0.00000000E+00
  0.00000000E+00  0.00000000E+00  0.00000000E+00
