POSCAR                                  
   3.57500000000000     
     1.5000000000000002   -2.0000000000000000   -0.5000000000000000
    -2.0000000000000000   -1.5000000000000002    0.5000000000000000
    -1.0000000000000000    1.0000000000000000   -4.0000000000000000
   Fe   Ni
    81    27
Direct
  0.1288143050460824  0.9806236318805942  0.2353895015776947
  0.3828526301702324  0.9495765885552370  0.1967227094361662
  0.1575622119416581  0.8296333752521120  0.0820755724388584
  0.6423529992414765  0.9152141653587040  0.1574353946595066
  0.4171349411951392  0.7997059976727439  0.0457059647027572
  0.9076720756936562  0.8764189401945341  0.1220411695981396
  0.6917739010107196  0.7690294212882174  0.0096943408030841
  0.2513584265677592  0.9668602463143094  0.4627615027106340
  0.5086930547849321  0.9267819577803178  0.4232556865647077
  0.2981389086670180  0.8214781752947036  0.3225130873900134
  0.0772336196259590  0.7047938630905517  0.2106226320383062
  0.7687817719235416  0.8855269916092233  0.3884377419763769
  0.5518909509704112  0.7786544598074252  0.2793384996345407
  0.3335387983123466  0.6704698976033194  0.1709916997996136
  0.1111006825613710  0.5570644576646083  0.0581857372375712
  0.8133360172932633  0.7412224629844738  0.2417358210669822
  0.5929321002631163  0.6343120390879544  0.1263641414753832
  0.3619805661095304  0.5145780092268138  0.0189776422057179
  0.8586812482385797  0.5920680026160553  0.0918480244592848
  0.1208006738817354  0.9724537762777835  0.7299470594705231
  0.3839202062535310  0.9466590627612897  0.6953222376110471
  0.6422148008446044  0.9127854410332615  0.6578899775207808
  0.4154019236429273  0.8035035728742504  0.5441169843196872
  0.1982258697686614  0.6897076949084653  0.4324423629322013
  0.6748382883945371  0.7597211986974907  0.5106671058180642
  0.4615494236819446  0.6520821087983161  0.3952165095817838
  0.2459245973618995  0.5319053616274861  0.2853989639704405
  0.9348370622448802  0.7213442410286006  0.4743138222351169
  0.5081077807185912  0.4976339075758379  0.2467359472274480
  0.0561731307358530  0.2823712262568911  0.0311113171593112
  0.9817976659317852  0.5706846118968874  0.3262932732940873
  0.7640021690313540  0.4615421540835963  0.2115803187779349
  0.5347506272148407  0.3517263066208816  0.0975480482146598
  0.0350140642194178  0.8457008442009395  0.8535988581830566
  0.5213784502502901  0.9262468436858902  0.9277551385548819
  0.2965636268039592  0.8093495523293900  0.8183158824580831
  0.0704347510951361  0.6980188806714083  0.7008048528437903
  0.3308098898612296  0.6725433357519279  0.6676500490108697
  0.1133915645482376  0.5510987462160379  0.5503068096036098
  0.8113184994709139  0.7467702256482698  0.7398229294379993
  0.5886176744059198  0.6316991759479785  0.6312490460180715
  0.3794023267053848  0.5216551823866390  0.5150715815666042
  0.1556405591546364  0.4024163155648503  0.4042884886861816
  0.8509697718354872  0.5884070600949646  0.5922062954080722
  0.6384148172295312  0.4808011017103644  0.4783603771753948
  0.4174444235499854  0.3680782412180833  0.3672456702911028
  0.1859784842981986  0.2517477662375360  0.2549718522658109
  0.4475332833474200  0.2205866485045506  0.2202082017952528
  0.2207305527560283  0.1064573381928492  0.1051898105418308
 -0.0094210169493532  0.0016424475156264 -0.0006925148811238
  0.9273354362042988  0.2925134439035632  0.2976041731406605
  0.7051500481501978  0.1870210927843404  0.1798706502200130
  0.4645359213400350  0.6494407787505868  0.9025819742239271
  0.2395132705090981  0.5317173283284392  0.7916333418859149
  0.0266656741075619  0.4201697976544176  0.6752913778304870
  0.7276047267903378  0.6197644628340852  0.8619040027698920
  0.5040598716741229  0.5067406720138452  0.7530902850077367
  0.2880660225065496  0.3924802353946610  0.6390639117934913
  0.0556124935780279  0.2721443417732546  0.5256173267770448
  0.7650352768081927  0.4639735580194234  0.7138575248751100
  0.3183248809864659  0.2436006450481186  0.4917312801689865
  0.8006368753983916  0.3091907180146767  0.5653447310823696
  0.5796163398126855  0.2068079053336243  0.4538118295522341
  0.3531753868940162  0.0953170642904433  0.3470050726702439
  0.6135532010232455  0.0593978540707346  0.3071821027922401
  0.8717940171644422  0.0196617111717879  0.2718454584372222
  0.6322272873364480  0.4840523885849238  0.9813707524118996
  0.4065899400811231  0.3641452567933141  0.8713339690844831
  0.1876105245170232  0.2494059774578787  0.7598168813790838
  0.8911582910341708  0.4431779922933429  0.9417286103046848
  0.6701528341112147  0.3364656993571877  0.8329124755493428
  0.4519512607751647  0.2245555561806176  0.7216930418784345
  0.2201965453582558  0.1096812976335422  0.6110002562603828
 -0.0074601720806359 -0.0013104194871491  0.4991961902127683
  0.9295189627533450  0.2918057895044855  0.7934255598633883
  0.4839497698265769  0.0803920817786167  0.5725979782714539
  0.7391319745531562  0.0349030324930787  0.5352438190895259
  0.0916278498027237  0.1271176968926288  0.8827642711019192
  0.5809290868468787  0.2039310195110934  0.9544161817562461
  0.3518304510728429  0.0859644071941848  0.8454148699805200
  0.6162307784095623  0.0559490966412660  0.8065333009139647
  0.0331548195788726  0.8531775536928624  0.3542033856194465
  0.1581559576839407  0.8319652003369651  0.5819375023182461
  0.9007134145140783  0.8694450040504361  0.6207315303287152
  0.0215856975428557  0.4247367922101368  0.1778620226230827
  0.7225281207544048  0.6077762820313297  0.3605637270440434
  0.2785701110283555  0.3875051506486407  0.1389677366239366
  0.7996122514626240  0.3167642989080660  0.0628330372785045
  0.2544816267039442  0.9589553626374527  0.9624718699116460
  0.7794405168584543  0.8922905715810550  0.8877558126289667
  0.5551156746618758  0.7829322634729619  0.7803738554015587
  0.8913304929642168  0.4408650041760349  0.4431825124749034
  0.6748318273397987  0.3322367499191838  0.3315354703450084
  0.4771769557704637  0.0743791361358725  0.0704519694189428
  0.9604921485483913  0.1495004794521589  0.1482565381575295
  0.7404264352889836  0.0414767605366610  0.0364851262105499
  0.2001852301903461  0.6819065080982081  0.9361106670402567
  0.9435657102279562  0.7216133247662735  0.9707222874554865
  0.9842222309204164  0.5729576490584407  0.8248160667212766
  0.5476848887394900  0.3547067685826353  0.6026873394201424
  0.0906503526026206  0.1279840043889988  0.3802008463831330
  0.8334449370297138  0.1664904141553269  0.4166660898918833
  0.1466165251757957  0.4042537506603102  0.9079629233136275
  0.7073719992514250  0.1854900466931279  0.6848754626003055
  0.9606858386859892  0.1421478998674765  0.6485443282424456
  0.3137760718074720  0.2385649313147314  0.9902211636239021
  0.8353545819269302  0.1688864152600083  0.9153942513057139
  0.8699056034886350  0.0194601415493057  0.7682691494631477
 
  0.00000000E+00  0.00000000E+00  0.00000000E+00
  0.00000000E+00  0.00000000E+00  0.00000000E+00
  0.00000000E+00  0.00000000E+00  0.00000000E+00
  0.00000000E+00  0.00000000E+00  0.00000000E+00
  0.00000000E+00  0.00000000E+00  0.00000000E+00
  0.00000000E+00  0.00000000E+00  0.00000000E+00
  0.00000000E+00  0.00000000E+00  0.00000000E+00
  0.00000000E+00  0.00000000E+00  0.00000000E+00
  0.00000000E+00  0.00000000E+00  0.00000000E+00
  0.00000000E+00  0.00000000E+00  0.00000000E+00
  0.00000000E+00  0.00000000E+00  0.00000000E+00
  0.00000000E+00  0.00000000E+00  0.00000000E+00
  0.00000000E+00  0.00000000E+00  0.00000000E+00
  0.00000000E+00  0.00000000E+00  0.00000000E+00
  0.00000000E+00  0.00000000E+00  0.00000000E+00
  0.00000000E+00  0.00000000E+00  0.00000000E+00
  0.00000000E+00  0.00000000E+00  0.00000000E+00
  0.00000000E+00  0.00000000E+00  0.00000000E+00
  0.00000000E+00  0.00000000E+00  0.00000000E+00
  0.00000000E+00  0.00000000E+00  0.00000000E+00
  0.00000000E+00  0.00000000E+00  0.00000000E+00
  0.00000000E+00  0.00000000E+00  0.00000000E+00
  0.00000000E+00  0.00000000E+00  0.00000000E+00
  0.00000000E+00  0.00000000E+00  0.00000000E+00
  0.00000000E+00  0.00000000E+00  0.00000000E+00
  0.00000000E+00  0.00000000E+00  0.00000000E+00
  0.00000000E+00  0.00000000E+00  0.00000000E+00
  0.00000000E+00  0.00000000E+00  0.00000000E+00
  0.00000000E+00  0.00000000E+00  0.00000000E+00
  0.00000000E+00  0.00000000E+00  0.00000000E+00
  0.00000000E+00  0.00000000E+00  0.00000000E+00
  0.00000000E+00  0.00000000E+00  0.00000000E+00
  0.00000000E+00  0.00000000E+00  0.00000000E+00
  0.00000000E+00  0.00000000E+00  0.00000000E+00
  0.00000000E+00  0.00000000E+00  0.00000000E+00
  0.00000000E+00  0.00000000E+00  0.00000000E+00
  0.00000000E+00  0.00000000E+00  0.00000000E+00
  0.00000000E+00  0.00000000E+00  0.00000000E+00
  0.00000000E+00  0.00000000E+00  0.00000000E+00
  0.00000000E+00  0.00000000E+00  0.00000000E+00
  0.00000000E+00  0.00000000E+00  0.00000000E+00
  0.00000000E+00  0.00000000E+00  0.00000000E+00
  0.00000000E+00  0.00000000E+00  0.00000000E+00
  0.00000000E+00  0.00000000E+00  0.00000000E+00
  0.00000000E+00  0.00000000E+00  0.00000000E+00
  0.00000000E+00  0.00000000E+00  0.00000000E+00
  0.00000000E+00  0.00000000E+00  0.00000000E+00
  0.00000000E+00  0.00000000E+00  0.00000000E+00
  0.00000000E+00  0.00000000E+00  0.00000000E+00
  0.00000000E+00  0.00000000E+00  0.00000000E+00
  0.00000000E+00  0.00000000E+00  0.00000000E+00
  0.00000000E+00  0.00000000E+00  0.00000000E+00
  0.00000000E+00  0.00000000E+00  0.00000000E+00
  0.00000000E+00  0.00000000E+00  0.00000000E+00
  0.00000000E+00  0.00000000E+00  0.00000000E+00
  0.00000000E+00  0.00000000E+00  0.00000000E+00
  0.00000000E+00  0.00000000E+00  0.00000000E+00
  0.00000000E+00  0.00000000E+00  0.00000000E+00
  0.00000000E+00  0.00000000E+00  0.00000000E+00
  0.00000000E+00  0.00000000E+00  0.00000000E+00
  0.00000000E+00  0.00000000E+00  0.00000000E+00
  0.00000000E+00  0.00000000E+00  0.00000000E+00
  0.00000000E+00  0.00000000E+00  0.00000000E+00
  0.00000000E+00  0.00000000E+00  0.00000000E+00
  0.00000000E+00  0.00000000E+00  0.00000000E+00
  0.00000000E+00  0.00000000E+00  0.00000000E+00
  0.00000000E+00  0.00000000E+00  0.00000000E+00
  0.00000000E+00  0.00000000E+00  0.00000000E+00
  0.00000000E+00  0.00000000E+00  0.00000000E+00
  0.00000000E+00  0.00000000E+00  0.00000000E+00
  0.00000000E+00  0.00000000E+00  0.00000000E+00
  0.00000000E+00  0.00000000E+00  0.00000000E+00
  0.00000000E+00  0.00000000E+00  0.00000000E+00
  0.00000000E+00  0.00000000E+00  0.00000000E+00
  0.00000000E+00  0.00000000E+00  0.00000000E+00
  0.00000000E+00  0.00000000E+00  0.00000000E+00
  0.00000000E+00  0.00000000E+00  0.00000000E+00
  0.00000000E+00  0.00000000E+00  0.00000000E+00
  0.00000000E+00  0.00000000E+00  0.00000000E+00
  0.00000000E+00  0.00000000E+00  0.00000000E+00
  0.00000000E+00  0.00000000E+00  0.00000000E+00
  0.00000000E+00  0.00000000E+00  0.00000000E+00
  0.00000000E+00  0.00000000E+00  0.00000000E+00
  0.00000000E+00  0.00000000E+00  0.00000000E+00
  0.00000000E+00  0.00000000E+00  0.00000000E+00
  0.00000000E+00  0.00000000E+00  0.00000000E+00
  0.00000000E+00  0.00000000E+00  0.00000000E+00
  0.00000000E+00  0.00000000E+00  0.00000000E+00
  0.00000000E+00  0.00000000E+00  0.00000000E+00
  0.00000000E+00  0.00000000E+00  0.00000000E+00
  0.00000000E+00  0.00000000E+00  0.00000000E+00
  0.00000000E+00  0.00000000E+00  0.00000000E+00
  0.00000000E+00  0.00000000E+00  0.00000000E+00
  0.00000000E+00  0.00000000E+00  0.00000000E+00
  0.00000000E+00  0.00000000E+00  0.00000000E+00
  0.00000000E+00  0.00000000E+00  0.00000000E+00
  0.00000000E+00  0.00000000E+00  0.00000000E+00
  0.00000000E+00  0.00000000E+00  0.00000000E+00
  0.00000000E+00  0.00000000E+00  0.00000000E+00
  0.00000000E+00  0.00000000E+00  0.00000000E+00
  0.00000000E+00  0.00000000E+00  0.00000000E+00
  0.00000000E+00  0.00000000E+00  0.00000000E+00
  0.00000000E+00  0.00000000E+00  0.00000000E+00
  0.00000000E+00  0.00000000E+00  0.00000000E+00
  0.00000000E+00  0.00000000E+00  0.00000000E+00
  0.00000000E+00  0.00000000E+00  0.00000000E+00
  0.00000000E+00  0.00000000E+00  0.00000000E+00
  0.00000000E+00  0.00000000E+00  0.00000000E+00
