POSCAR                                  
   1.00000000000000     
     9.9673800000000004    0.0000000000000000    0.0000000000000000
    -4.9836900000000002    8.6320042899999994    0.0000000000000000
     0.0000000000000000    0.0000000000000000   21.1037500000000016
   Ni   O 
    64     4
Selective dynamics
Direct
  0.1128330000000020  0.2256670000000014  0.0947699999999969   F   F   F
  0.1109248242437104  0.2275735528599725  0.3825013551872232   T   T   T
  0.1961670000000026  0.1423330000000007  0.1911780000000007   F   F   F
  0.0298059311346037  0.0591450882915652  0.2847139124859197   T   T   T
  0.3628330000000020  0.2256670000000014  0.0947699999999969   F   F   F
  0.3666165463958535  0.2274547288152817  0.3825265396078947   T   T   T
  0.4461670000000026  0.1423330000000007  0.1911780000000007   F   F   F
  0.2792915517981953  0.0591038393002492  0.2847173120783282   T   T   T
  0.6128330000000020  0.2256670000000014  0.0947699999999969   F   F   F
  0.6108536095187063  0.2274523660030141  0.3825354225551720   T   T   T
  0.6961670000000026  0.1423330000000007  0.1911780000000007   F   F   F
  0.5298264052111179  0.0591019377563526  0.2847329357838575   T   T   T
  0.8628330000000020  0.2256670000000014  0.0947699999999969   F   F   F
  0.8667176513343122  0.2275591951676148  0.3825106561697140   T   T   T
  0.9461670000000026  0.1423330000000007  0.1911780000000007   F   F   F
  0.7793238677091452  0.0591393872311627  0.2847272016889093   T   T   T
  0.1128330000000020  0.4756670000000014  0.0947699999999969   F   F   F
  0.1109439625534776  0.4718304935175084  0.3825156672577066   T   T   T
  0.1961670000000026  0.3923330000000007  0.1911780000000007   F   F   F
  0.0295314104645996  0.3090118673582936  0.2864566235536472   T   T   T
  0.3628330000000020  0.4756670000000014  0.0947699999999969   F   F   F
  0.3627720009232505  0.4755474987481492  0.3771421294350787   T   T   T
  0.4461670000000026  0.3923330000000007  0.1911780000000007   F   F   F
  0.2793318381945369  0.3086153806862342  0.2847101642316403   T   T   T
  0.6128330000000020  0.4756670000000014  0.0947699999999969   F   F   F
  0.6108426206441493  0.4717080564289944  0.3825624321466137   T   T   T
  0.6961670000000026  0.3923330000000007  0.1911780000000007   F   F   F
  0.5294589455829453  0.3089124205882285  0.2864710674349240   T   T   T
  0.8628330000000020  0.4756670000000014  0.0947699999999969   F   F   F
  0.8627967220658306  0.4755682768586880  0.3771438825343125   T   T   T
  0.9461670000000026  0.3923330000000007  0.1911780000000007   F   F   F
  0.7793066030834126  0.3086065682003536  0.2847203030068144   T   T   T
  0.1128330000000020  0.7256670000000014  0.0947699999999969   F   F   F
  0.1108751748465693  0.7275588026919095  0.3825016570035160   T   T   T
  0.1961670000000026  0.6423330000000007  0.1911780000000007   F   F   F
  0.0298065033334893  0.5591389600620076  0.2847171696557496   T   T   T
  0.3628330000000020  0.7256670000000014  0.0947699999999969   F   F   F
  0.3666580379135027  0.7275439680267866  0.3825309665304317   T   T   T
  0.4461670000000026  0.6423330000000007  0.1911780000000007   F   F   F
  0.2793436326520720  0.5591550017282998  0.2847214952619694   T   T   T
  0.6128330000000020  0.7256670000000014  0.0947699999999969   F   F   F
  0.6108379970776454  0.7274593631651953  0.3825462820165058   T   T   T
  0.6961670000000026  0.6423330000000007  0.1911780000000007   F   F   F
  0.5298228575707427  0.5591039089298491  0.2847332783592691   T   T   T
  0.8628330000000020  0.7256670000000014  0.0947699999999969   F   F   F
  0.8666083120620058  0.7274921793772293  0.3825131201149006   T   T   T
  0.9461670000000026  0.6423330000000007  0.1911780000000007   F   F   F
  0.7792771977669943  0.5590927436793933  0.2847293896014662   T   T   T
  0.1128330000000020  0.9756670000000014  0.0947699999999969   F   F   F
  0.1108633455041428  0.9717885362829008  0.3825163635410931   T   T   T
  0.1961670000000026  0.8923330000000007  0.1911780000000007   F   F   F
  0.0294635833412826  0.8089756932444701  0.2864629522645075   T   T   T
  0.3628330000000020  0.9756670000000014  0.0947699999999969   F   F   F
  0.3627596779200601  0.9755482500153576  0.3771382694056200   T   T   T
  0.4461670000000026  0.8923330000000007  0.1911780000000007   F   F   F
  0.2793050569548896  0.8086133320675941  0.2847100765119563   T   T   T
  0.6128330000000020  0.9756670000000014  0.0947699999999969   F   F   F
  0.6109178547536729  0.9717675303452040  0.3825572709440479   T   T   T
  0.6961670000000026  0.8923330000000007  0.1911780000000007   F   F   F
  0.5294871266662113  0.8089619482679922  0.2864740883716550   T   T   T
  0.8628330000000020  0.9756670000000014  0.0947699999999969   F   F   F
  0.8628060326664908  0.9755744150528045  0.3771410320574518   T   T   T
  0.9461670000000026  0.8923330000000007  0.1911780000000007   F   F   F
  0.7792807670240052  0.8086020879625124  0.2847222226368160   T   T   T
  0.1961140939833115  0.1423124272547014  0.4347534724040258   T   T   T
  0.6961409435990547  0.6422473002190543  0.4347061475244232   T   T   T
  0.1961289798249339  0.6423286580045300  0.4347371448569390   T   T   T
  0.6962632392231569  0.1423452350044485  0.4347100888629853   T   T   T
 
  0.00000000E+00  0.00000000E+00  0.00000000E+00
  0.00000000E+00  0.00000000E+00  0.00000000E+00
  0.00000000E+00  0.00000000E+00  0.00000000E+00
  0.00000000E+00  0.00000000E+00  0.00000000E+00
  0.00000000E+00  0.00000000E+00  0.00000000E+00
  0.00000000E+00  0.00000000E+00  0.00000000E+00
  0.00000000E+00  0.00000000E+00  0.00000000E+00
  0.00000000E+00  0.00000000E+00  0.00000000E+00
  0.00000000E+00  0.00000000E+00  0.00000000E+00
  0.00000000E+00  0.00000000E+00  0.00000000E+00
  0.00000000E+00  0.00000000E+00  0.00000000E+00
  0.00000000E+00  0.00000000E+00  0.00000000E+00
  0.00000000E+00  0.00000000E+00  0.00000000E+00
  0.00000000E+00  0.00000000E+00  0.00000000E+00
  0.00000000E+00  0.00000000E+00  0.00000000E+00
  0.00000000E+00  0.00000000E+00  0.00000000E+00
  0.00000000E+00  0.00000000E+00  0.00000000E+00
  0.00000000E+00  0.00000000E+00  0.00000000E+00
  0.00000000E+00  0.00000000E+00  0.00000000E+00
  0.00000000E+00  0.00000000E+00  0.00000000E+00
  0.00000000E+00  0.00000000E+00  0.00000000E+00
  0.00000000E+00  0.00000000E+00  0.00000000E+00
  0.00000000E+00  0.00000000E+00  0.00000000E+00
  0.00000000E+00  0.00000000E+00  0.00000000E+00
  0.00000000E+00  0.00000000E+00  0.00000000E+00
  0.00000000E+00  0.00000000E+00  0.00000000E+00
  0.00000000E+00  0.00000000E+00  0.00000000E+00
  0.00000000E+00  0.00000000E+00  0.00000000E+00
  0.00000000E+00  0.00000000E+00  0.00000000E+00
  0.00000000E+00  0.00000000E+00  0.00000000E+00
  0.00000000E+00  0.00000000E+00  0.00000000E+00
  0.00000000E+00  0.00000000E+00  0.00000000E+00
  0.00000000E+00  0.00000000E+00  0.00000000E+00
  0.00000000E+00  0.00000000E+00  0.00000000E+00
  0.00000000E+00  0.00000000E+00  0.00000000E+00
  0.00000000E+00  0.00000000E+00  0.00000000E+00
  0.00000000E+00  0.00000000E+00  0.00000000E+00
  0.00000000E+00  0.00000000E+00  0.00000000E+00
  0.00000000E+00  0.00000000E+00  0.00000000E+00
  0.00000000E+00  0.00000000E+00  0.00000000E+00
  0.00000000E+00  0.00000000E+00  0.00000000E+00
  0.00000000E+00  0.00000000E+00  0.00000000E+00
  0.00000000E+00  0.00000000E+00  0.00000000E+00
  0.00000000E+00  0.00000000E+00  0.00000000E+00
  0.00000000E+00  0.00000000E+00  0.00000000E+00
  0.00000000E+00  0.00000000E+00  0.00000000E+00
  0.00000000E+00  0.00000000E+00  0.00000000E+00
  0.00000000E+00  0.00000000E+00  0.00000000E+00
  0.00000000E+00  0.00000000E+00  0.00000000E+00
  0.00000000E+00  0.00000000E+00  0.00000000E+00
  0.00000000E+00  0.00000000E+00  0.00000000E+00
  0.00000000E+00  0.00000000E+00  0.00000000E+00
  0.00000000E+00  0.00000000E+00  0.00000000E+00
  0.00000000E+00  0.00000000E+00  0.00000000E+00
  0.00000000E+00  0.00000000E+00  0.00000000E+00
  0.00000000E+00  0.00000000E+00  0.00000000E+00
  0.00000000E+00  0.00000000E+00  0.00000000E+00
  0.00000000E+00  0.00000000E+00  0.00000000E+00
  0.00000000E+00  0.00000000E+00  0.00000000E+00
  0.00000000E+00  0.00000000E+00  0.00000000E+00
  0.00000000E+00  0.00000000E+00  0.00000000E+00
  0.00000000E+00  0.00000000E+00  0.00000000E+00
  0.00000000E+00  0.00000000E+00  0.00000000E+00
  0.00000000E+00  0.00000000E+00  0.00000000E+00
  0.00000000E+00  0.00000000E+00  0.00000000E+00
  0.00000000E+00  0.00000000E+00  0.00000000E+00
  0.00000000E+00  0.00000000E+00  0.00000000E+00
  0.00000000E+00  0.00000000E+00  0.00000000E+00
