POSCAR                                  
   1.00000000000000     
     9.9673800000000004    0.0000000000000000    0.0000000000000000
    -4.9836900000000002    8.6320042899999994    0.0000000000000000
     0.0000000000000000    0.0000000000000000   21.1037500000000016
   Ni   O    H 
    64     5     1
Selective dynamics
Direct
  0.1128330000000020  0.2256670000000014  0.0947699999999969   F   F   F
  0.1100931585294672  0.2271456058382597  0.3821497511315630   F   F   F
  0.1961670000000026  0.1423330000000007  0.1911780000000007   F   F   F
  0.0298979299998723  0.0587586982649342  0.2846019945833774   F   F   F
  0.3628330000000020  0.2256670000000014  0.0947699999999969   F   F   F
  0.3603554852106849  0.2234655727729797  0.3860634509008765   F   F   F
  0.4461670000000026  0.1423330000000007  0.1911780000000007   F   F   F
  0.2799764608226189  0.0600781890386591  0.2855723164277715   F   F   F
  0.6128330000000020  0.2256670000000014  0.0947699999999969   F   F   F
  0.6153018370174774  0.2233393691530418  0.3856535258172382   F   F   F
  0.6961670000000026  0.1423330000000007  0.1911780000000007   F   F   F
  0.5311014765004232  0.0600307493917119  0.2855062935008817   F   F   F
  0.8628330000000020  0.2256670000000014  0.0947699999999969   F   F   F
  0.8692158422202155  0.2271551652576583  0.3821255588208903   F   F   F
  0.9461670000000026  0.1423330000000007  0.1911780000000007   F   F   F
  0.7798311328340555  0.0587489495384944  0.2846063309322434   F   F   F
  0.1128330000000020  0.4756670000000014  0.0947699999999969   F   F   F
  0.1120809800934673  0.4722061613569176  0.3823660012143910   F   F   F
  0.1961670000000026  0.3923330000000007  0.1911780000000007   F   F   F
  0.0301112380323460  0.3091336133272833  0.2862173769720348   F   F   F
  0.3628330000000020  0.4756670000000014  0.0947699999999969   F   F   F
  0.3621541027516141  0.4764883573394736  0.3765123815838504   F   F   F
  0.4461670000000026  0.3923330000000007  0.1911780000000007   F   F   F
  0.2800030103427983  0.3074596114223767  0.2855751138212920   F   F   F
  0.6128330000000020  0.4756670000000014  0.0947699999999969   F   F   F
  0.6151737622161383  0.4782726259586346  0.3860441135579963   F   F   F
  0.6961670000000026  0.3923330000000007  0.1911780000000007   F   F   F
  0.5298494789946310  0.3087236766046762  0.2876292541827877   F   F   F
  0.8628330000000020  0.4756670000000014  0.0947699999999969   F   F   F
  0.8663368573484502  0.4765042172381513  0.3764575239691695   F   F   F
  0.9461670000000026  0.3923330000000007  0.1911780000000007   F   F   F
  0.7785520921719714  0.3074765963847485  0.2855078017888597   F   F   F
  0.1128330000000020  0.7256670000000014  0.0947699999999969   F   F   F
  0.1120754840016284  0.7265824682986287  0.3823453161570410   F   F   F
  0.1961670000000026  0.6423330000000007  0.1911780000000007   F   F   F
  0.0299234114210715  0.5587733720957435  0.2843649100717731   F   F   F
  0.3628330000000020  0.7256670000000014  0.0947699999999969   F   F   F
  0.3664989115942620  0.7265998926399732  0.3823555578473567   F   F   F
  0.4461670000000026  0.6423330000000007  0.1911780000000007   F   F   F
  0.2798267561962922  0.5587510505955873  0.2843924472518760   F   F   F
  0.6128330000000020  0.7256670000000014  0.0947699999999969   F   F   F
  0.6115102427780665  0.7285616978607207  0.3821403871533196   F   F   F
  0.6961670000000026  0.6423330000000007  0.1911780000000007   F   F   F
  0.5311108238326298  0.5585683154849006  0.2855732694624360   F   F   F
  0.8628330000000020  0.7256670000000014  0.0947699999999969   F   F   F
  0.8691460067064628  0.7286714190107123  0.3821513539858106   F   F   F
  0.9461670000000026  0.6423330000000007  0.1911780000000007   F   F   F
  0.7785075084471280  0.5586019041854756  0.2855725615019137   F   F   F
  0.1128330000000020  0.9756670000000014  0.0947699999999969   F   F   F
  0.1099770553155320  0.9695096916642959  0.3821534268922146   F   F   F
  0.1961670000000026  0.8923330000000007  0.1911780000000007   F   F   F
  0.0300562107108925  0.8085287406614363  0.2862214555986851   F   F   F
  0.3628330000000020  0.9756670000000014  0.0947699999999969   F   F   F
  0.3621440209608662  0.9723180137467530  0.3764559037637337   F   F   F
  0.4461670000000026  0.8923330000000007  0.1911780000000007   F   F   F
  0.2798040529769308  0.8086524828126893  0.2843638847205502   F   F   F
  0.6128330000000020  0.9756670000000014  0.0947699999999969   F   F   F
  0.6115009921016450  0.9694207874390014  0.3821184535591186   F   F   F
  0.6961670000000026  0.8923330000000007  0.1911780000000007   F   F   F
  0.5294586195294173  0.8084755814466111  0.2862156895019918   F   F   F
  0.8628330000000020  0.9756670000000014  0.0947699999999969   F   F   F
  0.8635241768958538  0.9751180176931796  0.3774784391508325   F   F   F
  0.9461670000000026  0.8923330000000007  0.1911780000000007   F   F   F
  0.7798199999937404  0.8086768512738544  0.2846019086075361   F   F   F
  0.1802981950163191  0.1334535884633176  0.4365352043241440   F   F   F
  0.7051972420562352  0.6583162436259843  0.4365362916191977   F   F   F
  0.1969504637654550  0.6417967788984658  0.4353920689218526   F   F   F
  0.7052709000242392  0.1334165160048401  0.4364651086587412   F   F   F
  0.5310850365930997  0.3076792551713950  0.4486006539994993   T   T   T
  0.5334992471971839  0.3057426367818383  0.4947461472471409   T   T   T
 
  0.00000000E+00  0.00000000E+00  0.00000000E+00
  0.00000000E+00  0.00000000E+00  0.00000000E+00
  0.00000000E+00  0.00000000E+00  0.00000000E+00
  0.00000000E+00  0.00000000E+00  0.00000000E+00
  0.00000000E+00  0.00000000E+00  0.00000000E+00
  0.00000000E+00  0.00000000E+00  0.00000000E+00
  0.00000000E+00  0.00000000E+00  0.00000000E+00
  0.00000000E+00  0.00000000E+00  0.00000000E+00
  0.00000000E+00  0.00000000E+00  0.00000000E+00
  0.00000000E+00  0.00000000E+00  0.00000000E+00
  0.00000000E+00  0.00000000E+00  0.00000000E+00
  0.00000000E+00  0.00000000E+00  0.00000000E+00
  0.00000000E+00  0.00000000E+00  0.00000000E+00
  0.00000000E+00  0.00000000E+00  0.00000000E+00
  0.00000000E+00  0.00000000E+00  0.00000000E+00
  0.00000000E+00  0.00000000E+00  0.00000000E+00
  0.00000000E+00  0.00000000E+00  0.00000000E+00
  0.00000000E+00  0.00000000E+00  0.00000000E+00
  0.00000000E+00  0.00000000E+00  0.00000000E+00
  0.00000000E+00  0.00000000E+00  0.00000000E+00
  0.00000000E+00  0.00000000E+00  0.00000000E+00
  0.00000000E+00  0.00000000E+00  0.00000000E+00
  0.00000000E+00  0.00000000E+00  0.00000000E+00
  0.00000000E+00  0.00000000E+00  0.00000000E+00
  0.00000000E+00  0.00000000E+00  0.00000000E+00
  0.00000000E+00  0.00000000E+00  0.00000000E+00
  0.00000000E+00  0.00000000E+00  0.00000000E+00
  0.00000000E+00  0.00000000E+00  0.00000000E+00
  0.00000000E+00  0.00000000E+00  0.00000000E+00
  0.00000000E+00  0.00000000E+00  0.00000000E+00
  0.00000000E+00  0.00000000E+00  0.00000000E+00
  0.00000000E+00  0.00000000E+00  0.00000000E+00
  0.00000000E+00  0.00000000E+00  0.00000000E+00
  0.00000000E+00  0.00000000E+00  0.00000000E+00
  0.00000000E+00  0.00000000E+00  0.00000000E+00
  0.00000000E+00  0.00000000E+00  0.00000000E+00
  0.00000000E+00  0.00000000E+00  0.00000000E+00
  0.00000000E+00  0.00000000E+00  0.00000000E+00
  0.00000000E+00  0.00000000E+00  0.00000000E+00
  0.00000000E+00  0.00000000E+00  0.00000000E+00
  0.00000000E+00  0.00000000E+00  0.00000000E+00
  0.00000000E+00  0.00000000E+00  0.00000000E+00
  0.00000000E+00  0.00000000E+00  0.00000000E+00
  0.00000000E+00  0.00000000E+00  0.00000000E+00
  0.00000000E+00  0.00000000E+00  0.00000000E+00
  0.00000000E+00  0.00000000E+00  0.00000000E+00
  0.00000000E+00  0.00000000E+00  0.00000000E+00
  0.00000000E+00  0.00000000E+00  0.00000000E+00
  0.00000000E+00  0.00000000E+00  0.00000000E+00
  0.00000000E+00  0.00000000E+00  0.00000000E+00
  0.00000000E+00  0.00000000E+00  0.00000000E+00
  0.00000000E+00  0.00000000E+00  0.00000000E+00
  0.00000000E+00  0.00000000E+00  0.00000000E+00
  0.00000000E+00  0.00000000E+00  0.00000000E+00
  0.00000000E+00  0.00000000E+00  0.00000000E+00
  0.00000000E+00  0.00000000E+00  0.00000000E+00
  0.00000000E+00  0.00000000E+00  0.00000000E+00
  0.00000000E+00  0.00000000E+00  0.00000000E+00
  0.00000000E+00  0.00000000E+00  0.00000000E+00
  0.00000000E+00  0.00000000E+00  0.00000000E+00
  0.00000000E+00  0.00000000E+00  0.00000000E+00
  0.00000000E+00  0.00000000E+00  0.00000000E+00
  0.00000000E+00  0.00000000E+00  0.00000000E+00
  0.00000000E+00  0.00000000E+00  0.00000000E+00
  0.00000000E+00  0.00000000E+00  0.00000000E+00
  0.00000000E+00  0.00000000E+00  0.00000000E+00
  0.00000000E+00  0.00000000E+00  0.00000000E+00
  0.00000000E+00  0.00000000E+00  0.00000000E+00
  0.00000000E+00  0.00000000E+00  0.00000000E+00
  0.00000000E+00  0.00000000E+00  0.00000000E+00
