POSCAR                                  
   1.00000000000000     
     9.9673800000000004    0.0000000000000000    0.0000000000000000
    -4.9836900000000002    8.6320042899999994    0.0000000000000000
     0.0000000000000000    0.0000000000000000   21.1037500000000016
   Ni   O 
    64     4
Selective dynamics
Direct
  0.1128330000000020  0.2256670000000014  0.0947699999999969   F   F   F
  0.1110058838626031  0.2275232456341598  0.3825715250100927   T   T   T
  0.1961670000000026  0.1423330000000007  0.1911780000000007   F   F   F
  0.0299486079465154  0.0592265657399196  0.2847674937202029   T   T   T
  0.3628330000000020  0.2256670000000014  0.0947699999999969   F   F   F
  0.3664939212167155  0.2273709050564818  0.3826031326031725   T   T   T
  0.4461670000000026  0.1423330000000007  0.1911780000000007   F   F   F
  0.2792043824593833  0.0591702554352480  0.2847712405210601   T   T   T
  0.6128330000000020  0.2256670000000014  0.0947699999999969   F   F   F
  0.6108493260610359  0.2274035305628033  0.3826020445985137   T   T   T
  0.6961670000000026  0.1423330000000007  0.1911780000000007   F   F   F
  0.5299878685637935  0.0591652852826599  0.2847969065085678   T   T   T
  0.8628330000000020  0.2256670000000014  0.0947699999999969   F   F   F
  0.8666714947060896  0.2275303457810978  0.3825719494074988   T   T   T
  0.9461670000000026  0.1423330000000007  0.1911780000000007   F   F   F
  0.7792488244785787  0.0592166200625925  0.2847885771487384   T   T   T
  0.1128330000000020  0.4756670000000014  0.0947699999999969   F   F   F
  0.1110215376183845  0.4719624982350581  0.3825890789167303   T   T   T
  0.1961670000000026  0.3923330000000007  0.1911780000000007   F   F   F
  0.0295446156262074  0.3090143096048052  0.2863858458738946   T   T   T
  0.3628330000000020  0.4756670000000014  0.0947699999999969   F   F   F
  0.3627407413391524  0.4755109032143210  0.3767998962622556   T   T   T
  0.4461670000000026  0.3923330000000007  0.1911780000000007   F   F   F
  0.2792676581585312  0.3084604733833345  0.2847649953050961   T   T   T
  0.6128330000000020  0.4756670000000014  0.0947699999999969   F   F   F
  0.6108493827637105  0.4717440626351532  0.3826381056462509   T   T   T
  0.6961670000000026  0.3923330000000007  0.1911780000000007   F   F   F
  0.5294393982277512  0.3088909576216494  0.2863951518138350   T   T   T
  0.8628330000000020  0.4756670000000014  0.0947699999999969   F   F   F
  0.8628081673343644  0.4755589823972244  0.3768020468201598   T   T   T
  0.9461670000000026  0.3923330000000007  0.1911780000000007   F   F   F
  0.7792281042247140  0.3084501399985626  0.2847811072640951   T   T   T
  0.1128330000000020  0.7256670000000014  0.0947699999999969   F   F   F
  0.1109497851963397  0.7274986178914631  0.3825716677757640   T   T   T
  0.1961670000000026  0.6423330000000007  0.1911780000000007   F   F   F
  0.0299492614831962  0.5592125170628961  0.2847728604778155   T   T   T
  0.3628330000000020  0.7256670000000014  0.0947699999999969   F   F   F
  0.3665516222074316  0.7274943226829649  0.3826101480973918   T   T   T
  0.4461670000000026  0.6423330000000007  0.1911780000000007   F   F   F
  0.2792772212469714  0.5592455684867659  0.2847786374260295   T   T   T
  0.6128330000000020  0.7256670000000014  0.0947699999999969   F   F   F
  0.6108237450081404  0.7274176854524299  0.3826128614879778   T   T   T
  0.6961670000000026  0.6423330000000007  0.1911780000000007   F   F   F
  0.5299781632475131  0.5591654825109131  0.2847974566640232   T   T   T
  0.8628330000000020  0.7256670000000014  0.0947699999999969   F   F   F
  0.8665493383083813  0.7274559243040528  0.3825677119483117   T   T   T
  0.9461670000000026  0.6423330000000007  0.1911780000000007   F   F   F
  0.7791814843984568  0.5591461776122557  0.2847899770594751   T   T   T
  0.1128330000000020  0.9756670000000014  0.0947699999999969   F   F   F
  0.1109489763503646  0.9719757898592150  0.3825982509483552   T   T   T
  0.1961670000000026  0.8923330000000007  0.1911780000000007   F   F   F
  0.0294651025509154  0.8089758762702175  0.2863925881016769   T   T   T
  0.3628330000000020  0.9756670000000014  0.0947699999999969   F   F   F
  0.3627235272834142  0.9755189506551432  0.3767948102989820   T   T   T
  0.4461670000000026  0.8923330000000007  0.1911780000000007   F   F   F
  0.2792309551109469  0.8084597192453842  0.2847661714882221   T   T   T
  0.6128330000000020  0.9756670000000014  0.0947699999999969   F   F   F
  0.6109634624821325  0.9718427269705003  0.3826392480674272   T   T   T
  0.6961670000000026  0.8923330000000007  0.1911780000000007   F   F   F
  0.5294753273248602  0.8089507611473934  0.2863967323938255   T   T   T
  0.8628330000000020  0.9756670000000014  0.0947699999999969   F   F   F
  0.8628251211674183  0.9755720082304649  0.3767981826972644   T   T   T
  0.9461670000000026  0.8923330000000007  0.1911780000000007   F   F   F
  0.7791881920535175  0.8084417448748269  0.2847829421082864   T   T   T
  0.1961073243881586  0.1423124285833737  0.4345524309532323   T   T   T
  0.6961513517041169  0.6422602347683224  0.4345384430312222   T   T   T
  0.1961331075559585  0.6423449556089267  0.4345367035688597   T   T   T
  0.6962754914880378  0.1423541348986461  0.4345245205127384   T   T   T
 
  0.00000000E+00  0.00000000E+00  0.00000000E+00
  0.00000000E+00  0.00000000E+00  0.00000000E+00
  0.00000000E+00  0.00000000E+00  0.00000000E+00
  0.00000000E+00  0.00000000E+00  0.00000000E+00
  0.00000000E+00  0.00000000E+00  0.00000000E+00
  0.00000000E+00  0.00000000E+00  0.00000000E+00
  0.00000000E+00  0.00000000E+00  0.00000000E+00
  0.00000000E+00  0.00000000E+00  0.00000000E+00
  0.00000000E+00  0.00000000E+00  0.00000000E+00
  0.00000000E+00  0.00000000E+00  0.00000000E+00
  0.00000000E+00  0.00000000E+00  0.00000000E+00
  0.00000000E+00  0.00000000E+00  0.00000000E+00
  0.00000000E+00  0.00000000E+00  0.00000000E+00
  0.00000000E+00  0.00000000E+00  0.00000000E+00
  0.00000000E+00  0.00000000E+00  0.00000000E+00
  0.00000000E+00  0.00000000E+00  0.00000000E+00
  0.00000000E+00  0.00000000E+00  0.00000000E+00
  0.00000000E+00  0.00000000E+00  0.00000000E+00
  0.00000000E+00  0.00000000E+00  0.00000000E+00
  0.00000000E+00  0.00000000E+00  0.00000000E+00
  0.00000000E+00  0.00000000E+00  0.00000000E+00
  0.00000000E+00  0.00000000E+00  0.00000000E+00
  0.00000000E+00  0.00000000E+00  0.00000000E+00
  0.00000000E+00  0.00000000E+00  0.00000000E+00
  0.00000000E+00  0.00000000E+00  0.00000000E+00
  0.00000000E+00  0.00000000E+00  0.00000000E+00
  0.00000000E+00  0.00000000E+00  0.00000000E+00
  0.00000000E+00  0.00000000E+00  0.00000000E+00
  0.00000000E+00  0.00000000E+00  0.00000000E+00
  0.00000000E+00  0.00000000E+00  0.00000000E+00
  0.00000000E+00  0.00000000E+00  0.00000000E+00
  0.00000000E+00  0.00000000E+00  0.00000000E+00
  0.00000000E+00  0.00000000E+00  0.00000000E+00
  0.00000000E+00  0.00000000E+00  0.00000000E+00
  0.00000000E+00  0.00000000E+00  0.00000000E+00
  0.00000000E+00  0.00000000E+00  0.00000000E+00
  0.00000000E+00  0.00000000E+00  0.00000000E+00
  0.00000000E+00  0.00000000E+00  0.00000000E+00
  0.00000000E+00  0.00000000E+00  0.00000000E+00
  0.00000000E+00  0.00000000E+00  0.00000000E+00
  0.00000000E+00  0.00000000E+00  0.00000000E+00
  0.00000000E+00  0.00000000E+00  0.00000000E+00
  0.00000000E+00  0.00000000E+00  0.00000000E+00
  0.00000000E+00  0.00000000E+00  0.00000000E+00
  0.00000000E+00  0.00000000E+00  0.00000000E+00
  0.00000000E+00  0.00000000E+00  0.00000000E+00
  0.00000000E+00  0.00000000E+00  0.00000000E+00
  0.00000000E+00  0.00000000E+00  0.00000000E+00
  0.00000000E+00  0.00000000E+00  0.00000000E+00
  0.00000000E+00  0.00000000E+00  0.00000000E+00
  0.00000000E+00  0.00000000E+00  0.00000000E+00
  0.00000000E+00  0.00000000E+00  0.00000000E+00
  0.00000000E+00  0.00000000E+00  0.00000000E+00
  0.00000000E+00  0.00000000E+00  0.00000000E+00
  0.00000000E+00  0.00000000E+00  0.00000000E+00
  0.00000000E+00  0.00000000E+00  0.00000000E+00
  0.00000000E+00  0.00000000E+00  0.00000000E+00
  0.00000000E+00  0.00000000E+00  0.00000000E+00
  0.00000000E+00  0.00000000E+00  0.00000000E+00
  0.00000000E+00  0.00000000E+00  0.00000000E+00
  0.00000000E+00  0.00000000E+00  0.00000000E+00
  0.00000000E+00  0.00000000E+00  0.00000000E+00
  0.00000000E+00  0.00000000E+00  0.00000000E+00
  0.00000000E+00  0.00000000E+00  0.00000000E+00
  0.00000000E+00  0.00000000E+00  0.00000000E+00
  0.00000000E+00  0.00000000E+00  0.00000000E+00
  0.00000000E+00  0.00000000E+00  0.00000000E+00
  0.00000000E+00  0.00000000E+00  0.00000000E+00
