Fe                                      
   1.00000000000000     
     2.4823999405000001    0.0000000000000000    0.0000000000000000
    -0.8274657646000000    2.3404294206000000    0.0000000000000000
    -0.8274657646000000   -1.1702128386999999    2.0268724146000001
   Fe
     1
Direct
  0.0000000000000000  0.0000000000000000  0.0000000000000000
 
  0.00000000E+00  0.00000000E+00  0.00000000E+00
