Fe
1.0
        2.4823999405         0.0000000000         0.0000000000
       -0.8274657646         2.3404294206         0.0000000000
       -0.8274657646        -1.1702128387         2.0268724146
   Fe
    1
Direct
     0.000000000         0.000000000         0.000000000
