POSCAR                                  
   1.00000000000000     
    10.1116299999999999    0.0000000000000000    0.0000000000000000
    -5.0558149999999999    8.7569284500000002    0.0000000000000000
     0.0000000000000000    0.0000000000000000   21.3126459900000000
   Fe   Ni
    49    15
Selective dynamics
Direct
  0.0034042995110042  0.9977330468293957  0.2892319588396930   T   T   T
  0.5023926469603381  0.0012335367956169  0.2907495398067041   T   T   T
  0.7531183233555510  0.9963976484311132  0.2925686867140911   T   T   T
  0.2507613046293287  0.2446730509424171  0.2882901874472168   T   T   T
  0.0887320000000003  0.1614939999999976  0.0950365500000032   F   F   F
  0.0861533107222243  0.1670228818627635  0.3855079558744521   T   T   T
  0.3296259999999975  0.1660979999999981  0.0994980199999986   F   F   F
  0.3354594136173148  0.1651720160511587  0.3853095465378544   T   T   T
  0.1676629999999975  0.0809440000000023  0.1917224099999970   F   F   F
  0.5833299999999966  0.1655030000000011  0.0988736600000024   F   F   F
  0.5943197986293285  0.1769490073778641  0.3864145294524235   T   T   T
  0.4220779999999991  0.0874250000000032  0.1915611599999991   F   F   F
  0.8265150000000006  0.1665100000000024  0.0977019299999995   F   F   F
  0.8372975810423995  0.1688400245114465  0.3854945669028709   T   T   T
  0.6673759999999973  0.0832770000000025  0.1936207600000017   F   F   F
  0.9934947802836049  0.4895951947870429  0.2940787740628394   T   T   T
  0.2476155213837004  0.4951393201419592  0.2902910841891213   T   T   T
  0.4982241479851695  0.4961794027773152  0.2905630829432155   T   T   T
  0.3385990000000021  0.4158370000000033  0.0938409999999976   F   F   F
  0.3358468557985006  0.4196196803277488  0.3889001320036769   T   T   T
  0.7455475913323326  0.4893071025841067  0.2945554292756469   T   T   T
  0.5863360000000029  0.4222940000000008  0.0986728999999968   F   F   F
  0.5845143119476290  0.4238546017692926  0.3907158875978638   T   T   T
  0.4203279999999978  0.3267179999999996  0.1922648400000000   F   F   F
  0.8267710000000008  0.4167619999999985  0.0964369300000030   F   F   F
  0.8360449702092012  0.4182247255622471  0.3946815787321754   T   T   T
  0.6624929999999978  0.3354240000000033  0.1907982099999970   F   F   F
  0.0033108882869399  0.7449733964800132  0.2944864860515111   T   T   T
  0.2489051929111241  0.7483972745411052  0.2934545324775115   T   T   T
  0.0860460000000032  0.6708690000000033  0.0966438000000025   F   F   F
  0.0901598355566406  0.6661837623662734  0.3954628376295233   T   T   T
  0.4972463992895797  0.7473773554000971  0.2921612247577485   T   T   T
  0.3300589999999985  0.6613559999999978  0.0946321300000008   F   F   F
  0.3386083482238931  0.6705893583576810  0.3920390820129569   T   T   T
  0.1640700000000024  0.5890419999999992  0.1955836200000007   F   F   F
  0.7526281772518644  0.7427705373984494  0.2957815847847769   T   T   T
  0.5800819999999973  0.6609630000000024  0.0959703300000001   F   F   F
  0.5871333756779720  0.6759737121267619  0.3928150529943579   T   T   T
  0.8321370000000030  0.6619949999999974  0.0974750199999974   F   F   F
  0.8390689629001358  0.6660796356269927  0.3955560547140848   T   T   T
  0.6721440000000030  0.5852939999999975  0.1931376000000000   F   F   F
  0.9190749999999994  0.5873309999999989  0.1948790699999989   F   F   F
  0.0860360000000000  0.9163550000000029  0.0981502200000008   F   F   F
  0.0885105404394082  0.9123486455940153  0.3873624643139237   T   T   T
  0.3274299999999997  0.9193220000000011  0.0973765299999982   F   F   F
  0.3424676818342576  0.9178438537904086  0.3893910224826627   T   T   T
  0.1627429999999990  0.8315359999999998  0.1915065399999989   F   F   F
  0.6687829999999977  0.8308299999999988  0.1965008399999988   F   F   F
  0.9185230000000004  0.8270600000000030  0.1950313099999974   F   F   F
  0.2540325929157277  0.9983940796572170  0.2888008513175606   T   T   T
  0.9988352766582551  0.2462965406896203  0.2885411003190796   T   T   T
  0.5013152610860843  0.2466655071780295  0.2904678951972883   T   T   T
  0.7503074192591299  0.2474656698134439  0.2893721693595452   T   T   T
  0.9142409999999970  0.0792939999999973  0.1938200700000010   F   F   F
  0.0826080000000005  0.4170799999999986  0.0966946400000026   F   F   F
  0.0862185602935526  0.4156366889149936  0.3858168277054546   T   T   T
  0.1707729999999970  0.3343709999999973  0.1938938699999966   F   F   F
  0.9156699999999987  0.3364639999999994  0.1934147699999968   F   F   F
  0.4192359999999979  0.5847150000000028  0.1942085199999966   F   F   F
  0.5819070000000011  0.9152690000000021  0.0968538500000022   F   F   F
  0.5915113868347390  0.9233214197263209  0.3877196647603256   T   T   T
  0.4146700000000010  0.8342889999999983  0.1944476299999991   F   F   F
  0.8339989999999986  0.9145710000000022  0.0968451399999992   F   F   F
  0.8396298773121629  0.9196993535245639  0.3882082951345467   T   T   T
 
  0.00000000E+00  0.00000000E+00  0.00000000E+00
  0.00000000E+00  0.00000000E+00  0.00000000E+00
  0.00000000E+00  0.00000000E+00  0.00000000E+00
  0.00000000E+00  0.00000000E+00  0.00000000E+00
  0.00000000E+00  0.00000000E+00  0.00000000E+00
  0.00000000E+00  0.00000000E+00  0.00000000E+00
  0.00000000E+00  0.00000000E+00  0.00000000E+00
  0.00000000E+00  0.00000000E+00  0.00000000E+00
  0.00000000E+00  0.00000000E+00  0.00000000E+00
  0.00000000E+00  0.00000000E+00  0.00000000E+00
  0.00000000E+00  0.00000000E+00  0.00000000E+00
  0.00000000E+00  0.00000000E+00  0.00000000E+00
  0.00000000E+00  0.00000000E+00  0.00000000E+00
  0.00000000E+00  0.00000000E+00  0.00000000E+00
  0.00000000E+00  0.00000000E+00  0.00000000E+00
  0.00000000E+00  0.00000000E+00  0.00000000E+00
  0.00000000E+00  0.00000000E+00  0.00000000E+00
  0.00000000E+00  0.00000000E+00  0.00000000E+00
  0.00000000E+00  0.00000000E+00  0.00000000E+00
  0.00000000E+00  0.00000000E+00  0.00000000E+00
  0.00000000E+00  0.00000000E+00  0.00000000E+00
  0.00000000E+00  0.00000000E+00  0.00000000E+00
  0.00000000E+00  0.00000000E+00  0.00000000E+00
  0.00000000E+00  0.00000000E+00  0.00000000E+00
  0.00000000E+00  0.00000000E+00  0.00000000E+00
  0.00000000E+00  0.00000000E+00  0.00000000E+00
  0.00000000E+00  0.00000000E+00  0.00000000E+00
  0.00000000E+00  0.00000000E+00  0.00000000E+00
  0.00000000E+00  0.00000000E+00  0.00000000E+00
  0.00000000E+00  0.00000000E+00  0.00000000E+00
  0.00000000E+00  0.00000000E+00  0.00000000E+00
  0.00000000E+00  0.00000000E+00  0.00000000E+00
  0.00000000E+00  0.00000000E+00  0.00000000E+00
  0.00000000E+00  0.00000000E+00  0.00000000E+00
  0.00000000E+00  0.00000000E+00  0.00000000E+00
  0.00000000E+00  0.00000000E+00  0.00000000E+00
  0.00000000E+00  0.00000000E+00  0.00000000E+00
  0.00000000E+00  0.00000000E+00  0.00000000E+00
  0.00000000E+00  0.00000000E+00  0.00000000E+00
  0.00000000E+00  0.00000000E+00  0.00000000E+00
  0.00000000E+00  0.00000000E+00  0.00000000E+00
  0.00000000E+00  0.00000000E+00  0.00000000E+00
  0.00000000E+00  0.00000000E+00  0.00000000E+00
  0.00000000E+00  0.00000000E+00  0.00000000E+00
  0.00000000E+00  0.00000000E+00  0.00000000E+00
  0.00000000E+00  0.00000000E+00  0.00000000E+00
  0.00000000E+00  0.00000000E+00  0.00000000E+00
  0.00000000E+00  0.00000000E+00  0.00000000E+00
  0.00000000E+00  0.00000000E+00  0.00000000E+00
  0.00000000E+00  0.00000000E+00  0.00000000E+00
  0.00000000E+00  0.00000000E+00  0.00000000E+00
  0.00000000E+00  0.00000000E+00  0.00000000E+00
  0.00000000E+00  0.00000000E+00  0.00000000E+00
  0.00000000E+00  0.00000000E+00  0.00000000E+00
  0.00000000E+00  0.00000000E+00  0.00000000E+00
  0.00000000E+00  0.00000000E+00  0.00000000E+00
  0.00000000E+00  0.00000000E+00  0.00000000E+00
  0.00000000E+00  0.00000000E+00  0.00000000E+00
  0.00000000E+00  0.00000000E+00  0.00000000E+00
  0.00000000E+00  0.00000000E+00  0.00000000E+00
  0.00000000E+00  0.00000000E+00  0.00000000E+00
  0.00000000E+00  0.00000000E+00  0.00000000E+00
  0.00000000E+00  0.00000000E+00  0.00000000E+00
  0.00000000E+00  0.00000000E+00  0.00000000E+00
