POSCAR                                  
   1.00000000000000     
    10.1116299999999999    0.0000000000000000    0.0000000000000000
    -5.0558149999999999    8.7569284500000002    0.0000000000000000
     0.0000000000000000    0.0000000000000000   21.3126459900000000
   Fe   Ni
    49    15
Selective dynamics
Direct
  0.0034042995110020 -0.0022669531706027  0.2892319588396950   T   T   T
  0.5023926469603408  0.0012335367956164  0.2907495398067064   T   T   T
  0.7531183233555491 -0.0036023515688903  0.2925686867140928   T   T   T
  0.2507613046293301  0.2446730509424140  0.2882901874472192   T   T   T
  0.0887320000000003  0.1614939999999976  0.0950365500000032   F   F   F
  0.0861533107222257  0.1670228818627665  0.3855079558744498   T   T   T
  0.3296259999999975  0.1660979999999981  0.0994980199999986   F   F   F
  0.3354594136173140  0.1651720160511585  0.3853095465378509   T   T   T
  0.1676629999999975  0.0809440000000023  0.1917224099999970   F   F   F
  0.5833299999999966  0.1655030000000011  0.0988736600000024   F   F   F
  0.5943197986293273  0.1769490073778649  0.3864145294524215   T   T   T
  0.4220779999999991  0.0874250000000032  0.1915611599999991   F   F   F
  0.8265150000000006  0.1665100000000024  0.0977019299999995   F   F   F
  0.8372975810423977  0.1688400245114446  0.3854945669028728   T   T   T
  0.6673759999999973  0.0832770000000025  0.1936207600000017   F   F   F
 -0.0065052197163961  0.4895951947870417  0.2940787740628402   T   T   T
  0.2476155213836997  0.4951393201419573  0.2902910841891198   T   T   T
  0.4982241479851695  0.4961794027773152  0.2905630829432173   T   T   T
  0.3385990000000021  0.4158370000000033  0.0938409999999976   F   F   F
  0.3358468557985037  0.4196196803277476  0.3889001320036740   T   T   T
  0.7455475913323325  0.4893071025841077  0.2945554292756501   T   T   T
  0.5863360000000029  0.4222940000000008  0.0986728999999968   F   F   F
  0.5845143119476318  0.4238546017692932  0.3907158875978664   T   T   T
  0.4203279999999978  0.3267179999999996  0.1922648400000000   F   F   F
  0.8267710000000008  0.4167619999999985  0.0964369300000030   F   F   F
  0.8360449702092037  0.4182247255622497  0.3946815787321727   T   T   T
  0.6624929999999978  0.3354240000000033  0.1907982099999970   F   F   F
  0.0033108882869366  0.7449733964800135  0.2944864860515112   T   T   T
  0.2489051929111248  0.7483972745411018  0.2934545324775141   T   T   T
  0.0860460000000032  0.6708690000000033  0.0966438000000025   F   F   F
  0.0901598355566414  0.6661837623662733  0.3954628376295220   T   T   T
  0.4972463992895805  0.7473773554000983  0.2921612247577508   T   T   T
  0.3300589999999985  0.6613559999999978  0.0946321300000008   F   F   F
  0.3386083482238954  0.6705893583576843  0.3920390820129541   T   T   T
  0.1640700000000024  0.5890419999999992  0.1955836200000007   F   F   F
  0.7526281772518650  0.7427705373984529  0.2957815847847777   T   T   T
  0.5800819999999973  0.6609630000000024  0.0959703300000001   F   F   F
  0.5871333756779692  0.6759737121267645  0.3928150529943572   T   T   T
  0.8321370000000030  0.6619949999999974  0.0974750199999974   F   F   F
  0.8390689629001359  0.6660796356269892  0.3955560547140844   T   T   T
  0.6721440000000030  0.5852939999999975  0.1931376000000000   F   F   F
  0.9190749999999994  0.5873309999999989  0.1948790699999989   F   F   F
  0.0860360000000000  0.9163550000000029  0.0981502200000008   F   F   F
  0.0885105404394090  0.9123486455940145  0.3873624643139251   T   T   T
  0.3274299999999997  0.9193220000000011  0.0973765299999982   F   F   F
  0.3424676818342582  0.9178438537904078  0.3893910224826634   T   T   T
  0.1627429999999990  0.8315359999999998  0.1915065399999989   F   F   F
  0.6687829999999977  0.8308299999999988  0.1965008399999988   F   F   F
  0.9185230000000004  0.8270600000000030  0.1950313099999974   F   F   F
  0.2540325929157284 -0.0016059203427859  0.2888008513175609   T   T   T
 -0.0011647233417428  0.2462965406896173  0.2885411003190827   T   T   T
  0.5013152610860840  0.2466655071780308  0.2904678951972859   T   T   T
  0.7503074192591290  0.2474656698134423  0.2893721693595459   T   T   T
  0.9142409999999970  0.0792939999999973  0.1938200700000010   F   F   F
  0.0826080000000005  0.4170799999999986  0.0966946400000026   F   F   F
  0.0862185602935548  0.4156366889149929  0.3858168277054515   T   T   T
  0.1707729999999970  0.3343709999999973  0.1938938699999966   F   F   F
  0.9156699999999987  0.3364639999999994  0.1934147699999968   F   F   F
  0.4192359999999979  0.5847150000000028  0.1942085199999966   F   F   F
  0.5819070000000011  0.9152690000000021  0.0968538500000022   F   F   F
  0.5915113868347391  0.9233214197263220  0.3877196647603259   T   T   T
  0.4146700000000010  0.8342889999999983  0.1944476299999991   F   F   F
  0.8339989999999986  0.9145710000000022  0.0968451399999992   F   F   F
  0.8396298773121603  0.9196993535245653  0.3882082951345474   T   T   T
 
  0.00000000E+00  0.00000000E+00  0.00000000E+00
  0.00000000E+00  0.00000000E+00  0.00000000E+00
  0.00000000E+00  0.00000000E+00  0.00000000E+00
  0.00000000E+00  0.00000000E+00  0.00000000E+00
  0.00000000E+00  0.00000000E+00  0.00000000E+00
  0.00000000E+00  0.00000000E+00  0.00000000E+00
  0.00000000E+00  0.00000000E+00  0.00000000E+00
  0.00000000E+00  0.00000000E+00  0.00000000E+00
  0.00000000E+00  0.00000000E+00  0.00000000E+00
  0.00000000E+00  0.00000000E+00  0.00000000E+00
  0.00000000E+00  0.00000000E+00  0.00000000E+00
  0.00000000E+00  0.00000000E+00  0.00000000E+00
  0.00000000E+00  0.00000000E+00  0.00000000E+00
  0.00000000E+00  0.00000000E+00  0.00000000E+00
  0.00000000E+00  0.00000000E+00  0.00000000E+00
  0.00000000E+00  0.00000000E+00  0.00000000E+00
  0.00000000E+00  0.00000000E+00  0.00000000E+00
  0.00000000E+00  0.00000000E+00  0.00000000E+00
  0.00000000E+00  0.00000000E+00  0.00000000E+00
  0.00000000E+00  0.00000000E+00  0.00000000E+00
  0.00000000E+00  0.00000000E+00  0.00000000E+00
  0.00000000E+00  0.00000000E+00  0.00000000E+00
  0.00000000E+00  0.00000000E+00  0.00000000E+00
  0.00000000E+00  0.00000000E+00  0.00000000E+00
  0.00000000E+00  0.00000000E+00  0.00000000E+00
  0.00000000E+00  0.00000000E+00  0.00000000E+00
  0.00000000E+00  0.00000000E+00  0.00000000E+00
  0.00000000E+00  0.00000000E+00  0.00000000E+00
  0.00000000E+00  0.00000000E+00  0.00000000E+00
  0.00000000E+00  0.00000000E+00  0.00000000E+00
  0.00000000E+00  0.00000000E+00  0.00000000E+00
  0.00000000E+00  0.00000000E+00  0.00000000E+00
  0.00000000E+00  0.00000000E+00  0.00000000E+00
  0.00000000E+00  0.00000000E+00  0.00000000E+00
  0.00000000E+00  0.00000000E+00  0.00000000E+00
  0.00000000E+00  0.00000000E+00  0.00000000E+00
  0.00000000E+00  0.00000000E+00  0.00000000E+00
  0.00000000E+00  0.00000000E+00  0.00000000E+00
  0.00000000E+00  0.00000000E+00  0.00000000E+00
  0.00000000E+00  0.00000000E+00  0.00000000E+00
  0.00000000E+00  0.00000000E+00  0.00000000E+00
  0.00000000E+00  0.00000000E+00  0.00000000E+00
  0.00000000E+00  0.00000000E+00  0.00000000E+00
  0.00000000E+00  0.00000000E+00  0.00000000E+00
  0.00000000E+00  0.00000000E+00  0.00000000E+00
  0.00000000E+00  0.00000000E+00  0.00000000E+00
  0.00000000E+00  0.00000000E+00  0.00000000E+00
  0.00000000E+00  0.00000000E+00  0.00000000E+00
  0.00000000E+00  0.00000000E+00  0.00000000E+00
  0.00000000E+00  0.00000000E+00  0.00000000E+00
  0.00000000E+00  0.00000000E+00  0.00000000E+00
  0.00000000E+00  0.00000000E+00  0.00000000E+00
  0.00000000E+00  0.00000000E+00  0.00000000E+00
  0.00000000E+00  0.00000000E+00  0.00000000E+00
  0.00000000E+00  0.00000000E+00  0.00000000E+00
  0.00000000E+00  0.00000000E+00  0.00000000E+00
  0.00000000E+00  0.00000000E+00  0.00000000E+00
  0.00000000E+00  0.00000000E+00  0.00000000E+00
  0.00000000E+00  0.00000000E+00  0.00000000E+00
  0.00000000E+00  0.00000000E+00  0.00000000E+00
  0.00000000E+00  0.00000000E+00  0.00000000E+00
  0.00000000E+00  0.00000000E+00  0.00000000E+00
  0.00000000E+00  0.00000000E+00  0.00000000E+00
  0.00000000E+00  0.00000000E+00  0.00000000E+00
