POSCAR                                  
   1.00000000000000     
    10.1003100000000003    0.0000000000000000    0.0000000000000000
    -5.0501550000000002    8.7471250499999993    0.0000000000000000
     0.0000000000000000    0.0000000000000000   21.2537999999999982
   Ni   Fe   O 
    33    31     4
Selective dynamics
Direct
  0.9990430000000003  0.0006419999999991  0.1905229999999989   F   F   F
  0.2484910000000013  0.9986279999999965  0.1920550000000034   F   F   F
  0.4990250000000032  0.0019270000000020  0.1918059999999997   F   F   F
  0.9981390000000019  0.2506739999999965  0.1919419999999974   F   F   F
  0.2492149999999995  0.2488620000000026  0.1911860000000019   F   F   F
  0.3335934465586267  0.1636237869190262  0.2875692556751093   T   T   T
  0.7489350000000030  0.2527809999999988  0.1931749999999965   F   F   F
  0.4183749999999975  0.0839399999999983  0.0941180000000017   F   F   F
  0.4159213090602076  0.0843625926775693  0.3832212649882663   T   T   T
  0.8340589775007562  0.1680799108897957  0.2902650814183385   T   T   T
  0.6679699999999968  0.0847229999999968  0.0956929999999971   F   F   F
  0.6667470510846210  0.0858398129345235  0.3850647444260233   T   T   T
  0.9990859999999984  0.4991079999999997  0.1930400000000034   F   F   F
  0.7481689999999972  0.4987110000000001  0.1920459999999977   F   F   F
  0.5827462209271531  0.4146197306463202  0.2866233046551674   T   T   T
  0.4196099999999987  0.3333709999999996  0.0941400000000030   F   F   F
  0.4125153996869728  0.3303257529196688  0.3822878278497606   T   T   T
  0.8290461338564549  0.4140927677687714  0.2879623140466019   T   T   T
  0.9185590000000019  0.3350160000000031  0.0956869999999981   F   F   F
  0.9109847026399858  0.3307674360458361  0.3852340294255951   T   T   T
  0.9976580000000013  0.7489690000000024  0.1925600000000003   F   F   F
  0.0802005848793858  0.6633522489427587  0.2871538568489033   T   T   T
  0.7534649999999985  0.7517280000000000  0.1916289999999989   F   F   F
  0.4173729999999978  0.5835239999999970  0.0962340000000026   F   F   F
  0.4093485582295676  0.5795420327328703  0.3850509854848203   T   T   T
  0.9155080000000027  0.5846190000000036  0.0954290000000029   F   F   F
  0.9103847744098024  0.5865045163124651  0.3853093271957588   T   T   T
  0.1668289999999999  0.8349079999999987  0.0945669999999978   F   F   F
  0.1642208076694723  0.8358049477867910  0.3780250374373039   T   T   T
  0.4171529999999990  0.8333879999999994  0.0967929999999981   F   F   F
  0.4140247007795371  0.8320881117378052  0.3858115824513692   T   T   T
  0.9198510000000013  0.8326369999999983  0.0953980000000030   F   F   F
  0.9132910261671185  0.8291506245822942  0.3847715901247286   T   T   T
  0.7491819999999976  0.0045379999999966  0.1931129999999968   F   F   F
  0.0818919345266606  0.1645393980538654  0.2844319995715545   T   T   T
  0.4931899999999985  0.2454400000000021  0.1916780000000031   F   F   F
  0.1713960000000014  0.0833930000000009  0.0953590000000020   F   F   F
  0.1738177783225473  0.0861074909954177  0.3835337297181509   T   T   T
  0.5871316988395242  0.1661068578825720  0.2863315488014272   T   T   T
  0.9169309999999982  0.0858149999999966  0.0941010000000020   F   F   F
  0.9079641350737468  0.0835732899451895  0.3854719718689850   T   T   T
  0.2459640000000007  0.4966930000000005  0.1936990000000023   F   F   F
  0.0768523929249751  0.4185664142666468  0.2873308666221530   T   T   T
  0.5029729999999972  0.4996209999999977  0.1909629999999964   F   F   F
  0.3357011761188362  0.4155209843402488  0.2864929010485388   T   T   T
  0.1708140000000000  0.3372420000000034  0.0955050000000028   F   F   F
  0.1601971682820308  0.3308868132530897  0.3786220708975354   T   T   T
  0.6726469999999978  0.3359809999999968  0.0960030000000032   F   F   F
  0.6655389749888928  0.3374281693430164  0.3804233972438731   T   T   T
  0.2449050000000028  0.7526999999999973  0.1934359999999984   F   F   F
  0.4984030000000033  0.7498829999999970  0.1926070000000024   F   F   F
  0.3348939548272213  0.6664209769942613  0.2904394532032786   T   T   T
  0.1647060000000025  0.5862709999999964  0.0973309999999969   F   F   F
  0.1695133215173258  0.5902889782717525  0.3838813881404943   T   T   T
  0.5782267507239088  0.6647219621469836  0.2883356092114097   T   T   T
  0.8286780675777757  0.6583230062093536  0.2880431810190677   T   T   T
  0.6676250000000010  0.5842620000000025  0.0951990000000009   F   F   F
  0.6668882724766313  0.5875098077440305  0.3874490441616824   T   T   T
  0.0815080555123174  0.9126634323931555  0.2852581161820595   T   T   T
  0.3332751957534167  0.9113305067535300  0.2883501935402644   T   T   T
  0.5815681781637070  0.9156109938743187  0.2887577669187390   T   T   T
  0.8322616727825345  0.9139909020996401  0.2873801297664043   T   T   T
  0.6684139999999985  0.8335110000000014  0.0965980000000002   F   F   F
  0.6625994006013797  0.8303285990059568  0.3822076614958252   T   T   T
  0.0043108720078777  0.0086283311735996  0.4358393707346923   T   T   T
  0.4994219273151143  0.4968250692171151  0.4385320325731696   T   T   T
  0.0025399809554314  0.5028774186189616  0.4364253061362110   T   T   T
  0.4993656854931516  0.0024976446555748  0.4383305392273106   T   T   T
 
  0.00000000E+00  0.00000000E+00  0.00000000E+00
  0.00000000E+00  0.00000000E+00  0.00000000E+00
  0.00000000E+00  0.00000000E+00  0.00000000E+00
  0.00000000E+00  0.00000000E+00  0.00000000E+00
  0.00000000E+00  0.00000000E+00  0.00000000E+00
  0.00000000E+00  0.00000000E+00  0.00000000E+00
  0.00000000E+00  0.00000000E+00  0.00000000E+00
  0.00000000E+00  0.00000000E+00  0.00000000E+00
  0.00000000E+00  0.00000000E+00  0.00000000E+00
  0.00000000E+00  0.00000000E+00  0.00000000E+00
  0.00000000E+00  0.00000000E+00  0.00000000E+00
  0.00000000E+00  0.00000000E+00  0.00000000E+00
  0.00000000E+00  0.00000000E+00  0.00000000E+00
  0.00000000E+00  0.00000000E+00  0.00000000E+00
  0.00000000E+00  0.00000000E+00  0.00000000E+00
  0.00000000E+00  0.00000000E+00  0.00000000E+00
  0.00000000E+00  0.00000000E+00  0.00000000E+00
  0.00000000E+00  0.00000000E+00  0.00000000E+00
  0.00000000E+00  0.00000000E+00  0.00000000E+00
  0.00000000E+00  0.00000000E+00  0.00000000E+00
  0.00000000E+00  0.00000000E+00  0.00000000E+00
  0.00000000E+00  0.00000000E+00  0.00000000E+00
  0.00000000E+00  0.00000000E+00  0.00000000E+00
  0.00000000E+00  0.00000000E+00  0.00000000E+00
  0.00000000E+00  0.00000000E+00  0.00000000E+00
  0.00000000E+00  0.00000000E+00  0.00000000E+00
  0.00000000E+00  0.00000000E+00  0.00000000E+00
  0.00000000E+00  0.00000000E+00  0.00000000E+00
  0.00000000E+00  0.00000000E+00  0.00000000E+00
  0.00000000E+00  0.00000000E+00  0.00000000E+00
  0.00000000E+00  0.00000000E+00  0.00000000E+00
  0.00000000E+00  0.00000000E+00  0.00000000E+00
  0.00000000E+00  0.00000000E+00  0.00000000E+00
  0.00000000E+00  0.00000000E+00  0.00000000E+00
  0.00000000E+00  0.00000000E+00  0.00000000E+00
  0.00000000E+00  0.00000000E+00  0.00000000E+00
  0.00000000E+00  0.00000000E+00  0.00000000E+00
  0.00000000E+00  0.00000000E+00  0.00000000E+00
  0.00000000E+00  0.00000000E+00  0.00000000E+00
  0.00000000E+00  0.00000000E+00  0.00000000E+00
  0.00000000E+00  0.00000000E+00  0.00000000E+00
  0.00000000E+00  0.00000000E+00  0.00000000E+00
  0.00000000E+00  0.00000000E+00  0.00000000E+00
  0.00000000E+00  0.00000000E+00  0.00000000E+00
  0.00000000E+00  0.00000000E+00  0.00000000E+00
  0.00000000E+00  0.00000000E+00  0.00000000E+00
  0.00000000E+00  0.00000000E+00  0.00000000E+00
  0.00000000E+00  0.00000000E+00  0.00000000E+00
  0.00000000E+00  0.00000000E+00  0.00000000E+00
  0.00000000E+00  0.00000000E+00  0.00000000E+00
  0.00000000E+00  0.00000000E+00  0.00000000E+00
  0.00000000E+00  0.00000000E+00  0.00000000E+00
  0.00000000E+00  0.00000000E+00  0.00000000E+00
  0.00000000E+00  0.00000000E+00  0.00000000E+00
  0.00000000E+00  0.00000000E+00  0.00000000E+00
  0.00000000E+00  0.00000000E+00  0.00000000E+00
  0.00000000E+00  0.00000000E+00  0.00000000E+00
  0.00000000E+00  0.00000000E+00  0.00000000E+00
  0.00000000E+00  0.00000000E+00  0.00000000E+00
  0.00000000E+00  0.00000000E+00  0.00000000E+00
  0.00000000E+00  0.00000000E+00  0.00000000E+00
  0.00000000E+00  0.00000000E+00  0.00000000E+00
  0.00000000E+00  0.00000000E+00  0.00000000E+00
  0.00000000E+00  0.00000000E+00  0.00000000E+00
  0.00000000E+00  0.00000000E+00  0.00000000E+00
  0.00000000E+00  0.00000000E+00  0.00000000E+00
  0.00000000E+00  0.00000000E+00  0.00000000E+00
  0.00000000E+00  0.00000000E+00  0.00000000E+00
